Ni  O  C 
 1.0000000000000000
     7.4882608127655379    0.0000000000000000    0.0000000000000000
     3.7441304063827689    6.4850240940184634    0.0000000000000000
     0.0000000000000000    0.0000000000000000   26.1141393507181370
 Ni  O   C  
  36   5   5
Selective dynamics
Cartesian
  0.0000000000000000  0.0000000000000000 10.0000000000000000   F   F   F
  2.4960869375885126  0.0000000000000000 10.0000000000000000   F   F   F
  4.9921738751770253  0.0000000000000000 10.0000000000000000   F   F   F
  1.2480434687942563  2.1616746980061543 10.0000000000000000   F   F   F
  3.7441304063827689  2.1616746980061543 10.0000000000000000   F   F   F
  6.2402173439712811  2.1616746980061543 10.0000000000000000   F   F   F
  2.4960869375885126  4.3233493960123086 10.0000000000000000   F   F   F
  4.9921738751770253  4.3233493960123086 10.0000000000000000   F   F   F
  7.4882608127655379  4.3233493960123086 10.0000000000000000   F   F   F
  1.2480434687942563  0.7205582326687181 12.0380464502393796   F   F   F
  3.7441304063827685  0.7205582326687181 12.0380464502393796   F   F   F
  6.2402173439712820  0.7205582326687181 12.0380464502393796   F   F   F
  2.4960869375885126  2.8822329306748724 12.0380464502393796   F   F   F
  4.9921738751770253  2.8822329306748724 12.0380464502393796   F   F   F
  7.4882608127655388  2.8822329306748724 12.0380464502393796   F   F   F
  3.7441304063827689  5.0439076286810272 12.0380464502393796   F   F   F
  6.2402173439712811  5.0439076286810272 12.0380464502393796   F   F   F
  8.7363042815597947  5.0439076286810272 12.0380464502393796   F   F   F
 -0.0045589215069955  1.4390413299880040 14.0942688433807408   T   T   T
  2.4919077848469957  1.4363020230046759 14.0493687736747024   T   T   T
  4.9959675918526250  1.4357256896105914 14.0646299817956031   T   T   T
  1.2466756878634171  3.5915375474005673 14.0823497608840587   T   T   T
  3.7275826871856639  3.6049424965142221 14.0818609644648660   T   T   T
  6.2406501769712888  3.5978681499459917 14.0506844285985704   T   T   T
  2.4915573970538993  5.7575737096575059 14.0895261874477455   T   T   T
  4.9894451489880955  5.7625923584194609 14.0549996591550865   T   T   T
  7.5030486180994602  5.7561856251467525 14.0887445824094666   T   T   T
 -0.0019329716774512 -0.0268298057861739 16.1861235248801840   T   T   T
  2.4936323671929235 -0.0129047971565819 16.1015769813527783   T   T   T
  4.9992463546586379  0.0235135343633670 16.2419832811982623   T   T   T
  1.2549753246961415  2.1156114483952684 16.2189056011267176   T   T   T
  3.7439168110306023  2.1506851412691312 16.1007048094717753   T   T   T
  6.2219993470870536  2.1970783631500956 16.1548660038752949   T   T   T
  2.4568967526061658  4.3171387813797217 16.2444568324924994   T   T   T
  4.9992912212089875  4.3073158645339618 16.0919059248094030   T   T   T
  7.4630325728173981  4.2960262648270335 16.1438782032774206   T   T   T
  6.1568891955862917  3.7013687209270500 18.6685709323545375   T   T   T
  1.4101559559190711  0.3640498125158484 18.6993603774394153   T   T   T
 10.0529141887801003  5.8173724642855102 18.7517440227062266   T   T   T
  1.7546983868359338  3.1828083118423884 18.8249094651375692   T   T   T
  4.2108241439623839  1.2576177000771591 18.7711286281982872   T   T   T
  6.1853278896908233  3.6780544080309379 17.4838599983955376   T   T   T
  1.3037220519726951  0.4422172327072744 17.5275181156214899   T   T   T
 10.0360017431959676  5.7899411588184906 17.5724265768782217   T   T   T
  1.7979306921062865  3.2053358509985914 17.6541595103219642   T   T   T
  4.2650455118492445  1.1614361293845819 17.6028141987865467   T   T   T
