Ni  O 
 1.0000000000000000
     7.4882608127655379    0.0000000000000000    0.0000000000000000
     3.7441304063827689    6.4850240940184634    0.0000000000000000
     0.0000000000000000    0.0000000000000000   26.1141393507181370
 Ni  O  
  36   7
Selective dynamics
Cartesian
  0.0000000000000000  0.0000000000000000 10.0000000000000000   F   F   F
  2.4960869375885126  0.0000000000000000 10.0000000000000000   F   F   F
  4.9921738751770253  0.0000000000000000 10.0000000000000000   F   F   F
  1.2480434687942563  2.1616746980061543 10.0000000000000000   F   F   F
  3.7441304063827689  2.1616746980061543 10.0000000000000000   F   F   F
  6.2402173439712811  2.1616746980061543 10.0000000000000000   F   F   F
  2.4960869375885126  4.3233493960123086 10.0000000000000000   F   F   F
  4.9921738751770253  4.3233493960123086 10.0000000000000000   F   F   F
  7.4882608127655379  4.3233493960123086 10.0000000000000000   F   F   F
  1.2480434687942563  0.7205582326687181 12.0380464502393796   F   F   F
  3.7441304063827685  0.7205582326687181 12.0380464502393796   F   F   F
  6.2402173439712820  0.7205582326687181 12.0380464502393796   F   F   F
  2.4960869375885126  2.8822329306748724 12.0380464502393796   F   F   F
  4.9921738751770253  2.8822329306748724 12.0380464502393796   F   F   F
  7.4882608127655388  2.8822329306748724 12.0380464502393796   F   F   F
  3.7441304063827689  5.0439076286810272 12.0380464502393796   F   F   F
  6.2402173439712811  5.0439076286810272 12.0380464502393796   F   F   F
  8.7363042815597947  5.0439076286810272 12.0380464502393796   F   F   F
  0.0043150801617032  1.4329277575443653 14.1076656040642412   T   T   T
  2.4912470762367178  1.4551356920331533 14.0533908866965085   T   T   T
  4.9843808433122065  1.4457189455986035 14.0763926353145337   T   T   T
  1.2507491955514503  3.5959313307361627 14.0992609419424220   T   T   T
  3.7202250080775863  3.6100318873088977 14.0808564921767676   T   T   T
  6.2272498225191146  3.5983913985695493 14.0757638844832442   T   T   T
  2.4979551925725358  5.7573114399262471 14.0997777609998440   T   T   T
  4.9717455682824587  5.7525716897896260 14.0533020788858618   T   T   T
  7.4915676025686233  5.7566544997260145 14.0514077112346776   T   T   T
  0.0273940242278188 -0.0064169575365789 16.2978195578161440   T   T   T
  2.5260883662759928 -0.0276108376745914 15.9937087635878541   T   T   T
  4.9204512286205802  0.0430054097836947 16.1308912758146619   T   T   T
  1.2580974034662409  2.1235005774794375 16.2944301324392420   T   T   T
  3.7046168184986947  2.1294502830679773 16.1681368430012071   T   T   T
  6.2321490436262170  2.1556347795252084 16.1796055417387521   T   T   T
  2.4053728192152222  4.3654001726453036 16.3865168694224046   T   T   T
  4.9909784814461533  4.3578301527222516 16.1676805739224498   T   T   T
  7.4062539826530047  4.3501238414355745 16.1298659342330986   T   T   T
  4.9596523341846845  2.8904752864068044 17.2316677676196939   T   T   T
  1.5032907577967280  0.5626614880321443 17.3123360563322990   T   T   T
  8.3930365906015698  5.2320999466360112 17.3385351258001350   T   T   T
  3.8058254425420635  5.0327290158337910 17.3579752955010669   T   T   T
  6.1365709799499051  0.7169936880489254 17.2879742511752568   T   T   T
  7.4320257009519572  2.9587556483321911 17.2851122199020892   T   T   T
  2.5255819067725271  2.8175069348143618 17.3566726368729825   T   T   T
