Ni  O  C 
 1.0000000000000000
     7.4882608127655379    0.0000000000000000    0.0000000000000000
     3.7441304063827689    6.4850240940184634    0.0000000000000000
     0.0000000000000000    0.0000000000000000   26.1141393507181370
 Ni  O   C  
  36   2   2
Selective dynamics
Cartesian
  0.0000000000000000  0.0000000000000000 10.0000000000000000   F   F   F
  2.4960869375885126  0.0000000000000000 10.0000000000000000   F   F   F
  4.9921738751770253  0.0000000000000000 10.0000000000000000   F   F   F
  1.2480434687942563  2.1616746980061543 10.0000000000000000   F   F   F
  3.7441304063827689  2.1616746980061543 10.0000000000000000   F   F   F
  6.2402173439712811  2.1616746980061543 10.0000000000000000   F   F   F
  2.4960869375885126  4.3233493960123086 10.0000000000000000   F   F   F
  4.9921738751770253  4.3233493960123086 10.0000000000000000   F   F   F
  7.4882608127655379  4.3233493960123086 10.0000000000000000   F   F   F
  1.2480434687942563  0.7205582326687181 12.0380464502393796   F   F   F
  3.7441304063827685  0.7205582326687181 12.0380464502393796   F   F   F
  6.2402173439712820  0.7205582326687181 12.0380464502393796   F   F   F
  2.4960869375885126  2.8822329306748724 12.0380464502393796   F   F   F
  4.9921738751770253  2.8822329306748724 12.0380464502393796   F   F   F
  7.4882608127655388  2.8822329306748724 12.0380464502393796   F   F   F
  3.7441304063827689  5.0439076286810272 12.0380464502393796   F   F   F
  6.2402173439712811  5.0439076286810272 12.0380464502393796   F   F   F
  8.7363042815597947  5.0439076286810272 12.0380464502393796   F   F   F
 -0.0002183895646062  1.4438785626397828 14.0770931496695439   T   T   T
  2.4938469189550307  1.4397317168208299 14.0631169663252145   T   T   T
  4.9875378170538172  1.4431944640041336 14.0775115481740851   T   T   T
  1.2438259715696580  3.5978903811002736 14.0763887049344874   T   T   T
  3.7439025622863675  3.5978305831005604 14.0772520207894569   T   T   T
  6.2377872720804035  3.6013480976419059 14.0535082764124155   T   T   T
  2.4944309285757846  5.7637187743677032 14.0626054779994334   T   T   T
  4.9944442068962527  5.7629664941491816 14.0768041404668658   T   T   T
  7.4817642055556899  5.7638081066898526 14.0766859345929358   T   T   T
 -0.0218807919065656 -0.0116070742168767 16.0770608390561733   T   T   T
  2.4916272296455286  0.0137517887231407 16.1545154922345979   T   T   T
  5.0058703758800984 -0.0129591481650054 16.0772665797719689   T   T   T
  1.2579412008757240  2.1512036592233557 16.1553136919833555   T   T   T
  3.7267026198510602  2.1519720699919427 16.1540584001180072   T   T   T
  6.2355298106851569  2.1638098284149869 16.1422334342630229   T   T   T
  2.4910405469444097  4.3421561613167512 16.0767150310274687   T   T   T
  4.9908204014139708  4.3189482307305687 16.1418540077180950   T   T   T
  7.4800718730891145  4.3187357737439189 16.1390806210225755   T   T   T
  6.2387988608738114  3.6036133586710815 18.6680193779790038   T   T   T
  2.4940953032369868  1.4382044340932767 18.6862266571288878   T   T   T
  6.2382235458707482  3.6024408014414320 17.4787015655717148   T   T   T
  2.4936406833871514  1.4387084549598592 17.4969890783944955   T   T   T
