Ni O  C 
 1.0000000000000000
     7.4882608127655379    0.0000000000000000    0.0000000000000000
     3.7441304063827689    6.4850240940184634    0.0000000000000000
     0.0000000000000000    0.0000000000000000   26.1141393507181370
 Ni  O   C  
  36   9   9
Selective dynamics
Cartesian
  0.0000000000000000  0.0000000000000000 10.0000000000000000   F   F   F
  2.4960869375885126  0.0000000000000000 10.0000000000000000   F   F   F
  4.9921738751770253  0.0000000000000000 10.0000000000000000   F   F   F
  1.2480434687942563  2.1616746980061543 10.0000000000000000   F   F   F
  3.7441304063827689  2.1616746980061543 10.0000000000000000   F   F   F
  6.2402173439712811  2.1616746980061543 10.0000000000000000   F   F   F
  2.4960869375885126  4.3233493960123086 10.0000000000000000   F   F   F
  4.9921738751770253  4.3233493960123086 10.0000000000000000   F   F   F
  7.4882608127655379  4.3233493960123086 10.0000000000000000   F   F   F
  1.2480434687942563  0.7205582326687181 12.0380464502393796   F   F   F
  3.7441304063827685  0.7205582326687181 12.0380464502393796   F   F   F
  6.2402173439712820  0.7205582326687181 12.0380464502393796   F   F   F
  2.4960869375885126  2.8822329306748724 12.0380464502393796   F   F   F
  4.9921738751770253  2.8822329306748724 12.0380464502393796   F   F   F
  7.4882608127655388  2.8822329306748724 12.0380464502393796   F   F   F
  3.7441304063827689  5.0439076286810272 12.0380464502393796   F   F   F
  6.2402173439712811  5.0439076286810272 12.0380464502393796   F   F   F
  8.7363042815597947  5.0439076286810272 12.0380464502393796   F   F   F
  0.0023485486970138  1.4410716754588999 14.0683819211604835   T   T   T
  2.4997611517836731  1.4413360005472216 14.0683244949794677   T   T   T
  4.9953580789771799  1.4411855714995643 14.0683729861979661   T   T   T
  1.2507564172695367  3.6018418571547897 14.0682771973935470   T   T   T
  3.7474346552825484  3.6032199190414835 14.0683293016158633   T   T   T
  6.2427828437570927  3.6031749247753724 14.0683565071797876   T   T   T
  2.4988586265584156  5.7640186589145941 14.0686728449045120   T   T   T
  4.9953819080666166  5.7652528663873177 14.0685802632651455   T   T   T
  7.4916116453521422  5.7645706331780042 14.0683389207243739   T   T   T
  0.0003150522732244 -0.0000806555944819 16.2073389500144280   T   T   T
  2.4963212659153542 -0.0000702346099395 16.2070836255317907   T   T   T
  4.9924897469469105 -0.0000915446099889 16.2073586330843753   T   T   T
  1.2482470979118705  2.1612850254279099 16.2071846135479092   T   T   T
  3.7441444168056619  2.1617448861615665 16.2073431189694652   T   T   T
  6.2403497120379212  2.1615591804411736 16.2072790320316003   T   T   T
  2.4963159160137143  4.3232861884610054 16.2074132445736474   T   T   T
  4.9924594816287229  4.3232141747261021 16.2072144274658427   T   T   T
  7.4883943397630013  4.3233849421226003 16.2072530120895308   T   T   T
  6.2399788181952687  3.6020439329039142 18.7263364046038561   T   T   T
  2.4955008152542288  1.4404103192595294 18.7266585417781641   T   T   T
  9.9846299756843937  5.7638894662836666 18.7265545157503794   T   T   T
  3.7440876107605754  3.6018205685724194 18.7265463721613621   T   T   T
  4.9920061377722869  1.4406573085380545 18.7264062169653265   T   T   T
  4.9918442839121200  5.7638108082215886 18.7262363272718346   T   T   T
  7.4879356010791174  5.7639829138749352 18.7261364130275645   T   T   T
  7.4884731224226737  1.4406761848354284 18.7269242981238584   T   T   T
  8.7362874867877558  3.6022515158518105 18.7265788151946282   T   T   T
  6.2405376707246685  3.6013740643107117 17.5578257127871531   T   T   T
  2.4958542940392063  1.4402213471202461 17.5581265614471889   T   T   T
  9.9844517202841772  5.7636896780597278 17.5580270382962205   T   T   T
  3.7440020492092008  3.6013177313635532 17.5580213825089437   T   T   T
  4.9921453090630523  1.4402143933628329 17.5578713266272679   T   T   T
  4.9922984913114883  5.7636464219329371 17.5577235722716196   T   T   T
  7.4881706044381424  5.7636556278887205 17.5575881936307745   T   T   T
  7.4883067032875310  1.4405595411228667 17.5584032392252070   T   T   T
  8.7363265386700188  3.6025633682441485 17.5580462747905059   T   T   T
