Ni  C  O 
 1.0000000000000000
     7.4882608127655379    0.0000000000000000    0.0000000000000000
     3.7441304063827689    6.4850240940184634    0.0000000000000000
     0.0000000000000000    0.0000000000000000   26.1141393507181370
 Ni  C   O  
  36   4   4
Selective dynamics
Cartesian
  0.0000000000000000  0.0000000000000000 10.0000000000000000   F   F   F
  2.4960869375885126  0.0000000000000000 10.0000000000000000   F   F   F
  4.9921738751770253  0.0000000000000000 10.0000000000000000   F   F   F
  1.2480434687942563  2.1616746980061543 10.0000000000000000   F   F   F
  3.7441304063827689  2.1616746980061543 10.0000000000000000   F   F   F
  6.2402173439712811  2.1616746980061543 10.0000000000000000   F   F   F
  2.4960869375885126  4.3233493960123086 10.0000000000000000   F   F   F
  4.9921738751770253  4.3233493960123086 10.0000000000000000   F   F   F
  7.4882608127655379  4.3233493960123086 10.0000000000000000   F   F   F
  1.2480434687942563  0.7205582326687181 12.0380464502393796   F   F   F
  3.7441304063827685  0.7205582326687181 12.0380464502393796   F   F   F
  6.2402173439712820  0.7205582326687181 12.0380464502393796   F   F   F
  2.4960869375885126  2.8822329306748724 12.0380464502393796   F   F   F
  4.9921738751770253  2.8822329306748724 12.0380464502393796   F   F   F
  7.4882608127655388  2.8822329306748724 12.0380464502393796   F   F   F
  3.7441304063827689  5.0439076286810272 12.0380464502393796   F   F   F
  6.2402173439712811  5.0439076286810272 12.0380464502393796   F   F   F
  8.7363042815597947  5.0439076286810272 12.0380464502393796   F   F   F
  0.0041062264942920  1.4454191931146070 14.0928247301975720   T   T   T
  2.5036198207950986  1.4439333745468392 14.0585519835977557   T   T   T
  5.0028778105969414  1.4557577578135683 14.0660538458904707   T   T   T
  1.2577396646490369  3.5999239104856744 14.0642610202629061   T   T   T
  3.7592254790482804  3.6067158230109353 14.0591328893515009   T   T   T
  6.2400798611572856  3.5995068168851847 14.0763486448304853   T   T   T
  2.5138774574280309  5.7731267519581424 14.0638060529296833   T   T   T
  4.9855253175926757  5.7554877488097027 14.1048375979692988   T   T   T
  7.4944233746314275  5.7697219060015312 14.0611117264473950   T   T   T
  0.0149226991032856  0.0449993526129384 16.2913651791142549   T   T   T
  2.5247068424831713  0.0059033960384506 16.1071604807955033   T   T   T
  5.0087847729643284  0.0107125868099617 16.0825344546764057   T   T   T
  1.2929682906423730  2.1566490135900764 16.1357174065750577   T   T   T
  3.7492864834370545  2.1887770137392781 16.1264885833577623   T   T   T
  6.2623356201136930  2.1717575655026713 16.2586793761496509   T   T   T
  2.5222231190049995  4.3394852381189537 16.0946442910431564   T   T   T
  5.0252833361297640  4.2989794807392947 16.2768164327499285   T   T   T
  7.5193335521765619  4.3333375175294400 16.0816697828529378   T   T   T
  6.5030096739639260  3.6949913665473706 17.5481510835242851   T   T   T
  1.4809283013493646  0.7518908880796066 17.5159099338467001   T   T   T
  9.7685711449930768  7.1269957281558005 17.5526234659211156   T   T   T
  3.5657670092019651  3.5967673297734843 17.5051021600496348   T   T   T
  6.5887535065828331  3.7501529440004684 18.7266210472828263   T   T   T
  1.5553071564619458  0.8019545974867939 18.6972839782079383   T   T   T
  9.6784065894098461  7.0810140170528131 18.7310865201541112   T   T   T
  3.4929440590340284  3.5450358969468700 18.6865150149901851   T   T   T
