Ni  O  C                                
   1.00000000000000     
     7.4882608127655379    0.0000000000000000    0.0000000000000000
     3.7441304063827689    6.4850240940184634    0.0000000000000000
     0.0000000000000000    0.0000000000000000   26.1141393507181370
  Ni/0534bc51ca8  O/818f92134a0a  C/253f7b50bb8d
              36               7               7
Selective dynamics
Direct
  0.0000000000000000  0.0000000000000000  0.3829343125460909   F   F   F
  0.3333333333333357  0.0000000000000000  0.3829343125460909   F   F   F
  0.6666666666666643  0.0000000000000000  0.3829343125460909   F   F   F
  0.0000000000000000  0.3333333333333357  0.3829343125460909   F   F   F
  0.3333333333333357  0.3333333333333357  0.3829343125460909   F   F   F
  0.6666666666666643  0.3333333333333357  0.3829343125460909   F   F   F
  0.0000000000000000  0.6666666666666643  0.3829343125460909   F   F   F
  0.3333333333333357  0.6666666666666643  0.3829343125460909   F   F   F
  0.6666666666666643  0.6666666666666643  0.3829343125460909   F   F   F
  0.1111111111111143  0.1111111111111143  0.4609781041820327   F   F   F
  0.4444444444444429  0.1111111111111143  0.4609781041820327   F   F   F
  0.7777777777777786  0.1111111111111143  0.4609781041820327   F   F   F
  0.1111111111111143  0.4444444444444429  0.4609781041820327   F   F   F
  0.4444444444444429  0.4444444444444429  0.4609781041820327   F   F   F
  0.7777777777777786  0.4444444444444429  0.4609781041820327   F   F   F
  0.1111111111111143  0.7777777777777786  0.4609781041820327   F   F   F
  0.4444444444444429  0.7777777777777786  0.4609781041820327   F   F   F
  0.7777777777777786  0.7777777777777786  0.4609781041820327   F   F   F
  0.8892745214876641  0.2241973121997773  0.5387968475408726   T   T   T
  0.2229190122789362  0.2208686627918155  0.5385275250880071   T   T   T
  0.5578019821819566  0.2219412489614356  0.5391797188852792   T   T   T
  0.8891877058425592  0.5557878501817299  0.5393172626461578   T   T   T
  0.2206623285689204  0.5565225538912060  0.5380429163917313   T   T   T
  0.5569587173558830  0.5545886094226447  0.5392213119352292   T   T   T
  0.8861640157462247  0.8902466710396482  0.5385086537353345   T   T   T
  0.2235218440277720  0.8866683890920939  0.5385385691695035   T   T   T
  0.5550789966936236  0.8890697698807983  0.5398528012853916   T   T   T
  0.9970154846492889  0.0000199247711734  0.6151575600726886   T   T   T
  0.3271908304027065  0.9985300330592111  0.6216870753329076   T   T   T
  0.6619229997683149  0.0005935849074490  0.6227582987038005   T   T   T
  0.0068874858415953  0.3334416738687764  0.6226733720998325   T   T   T
  0.3346961527859520  0.3338478174822797  0.6151361375301647   T   T   T
  0.6703101491585315  0.3348501344028918  0.6230277263264909   T   T   T
  0.9995551746696520  0.6710054394340332  0.6174411055740947   T   T   T
  0.3339623560152916  0.6630553035330990  0.6173261607772673   T   T   T
  0.6671555918640593  0.6666538580678747  0.6205184417193124   T   T   T
  0.7985968375764330  0.4548539950658039  0.7187810703788315   T   T   T
  0.2224280292135035  0.3155881457136545  0.7188844296086998   T   T   T
  0.9491523748036883  0.7526812903638742  0.7276436820347953   T   T   T
  0.3846000096546405  0.5838426552379445  0.7275495746068330   T   T   T
  0.6673537634148090  0.1675218680812947  0.7215860730820793   T   T   T
  0.1110460566251135  0.0215123014457674  0.7182625626267978   T   T   T
  0.5339718389029358  0.8820020012288623  0.7182406394496326   T   T   T
  0.7934990776307842  0.4545316471342815  0.6736672173891094   T   T   T
  0.2089844702213668  0.3204489802377353  0.6741520333900795   T   T   T
  0.9582009787877723  0.7402737750967034  0.6836213591647677   T   T   T
  0.3761534005292759  0.5953259635083157  0.6835074483349644   T   T   T
  0.6676066541648495  0.1670406246251019  0.6767724806831623   T   T   T
  0.1231545995574024  0.0195452224499562  0.6734754628736965   T   T   T
  0.5396421844371275  0.8818725155355907  0.6731183542047461   T   T   T
 
             NaN             NaN             NaN
             NaN             NaN             NaN
             NaN             NaN             NaN
             NaN             NaN             NaN
             NaN             NaN             NaN
             NaN             NaN             NaN
             NaN             NaN             NaN
             NaN             NaN             NaN
             NaN             NaN             NaN
             NaN             NaN             NaN
             NaN             NaN             NaN
             NaN             NaN             NaN
             NaN             NaN             NaN
             NaN             NaN             NaN
             NaN             NaN             NaN
             NaN             NaN             NaN
             NaN             NaN             NaN
             NaN             NaN             NaN
             NaN             NaN             NaN
             NaN             NaN             NaN
             NaN             NaN             NaN
             NaN             NaN             NaN
             NaN             NaN             NaN
             NaN             NaN             NaN
             NaN             NaN             NaN
             NaN             NaN             NaN
             NaN             NaN             NaN
             NaN             NaN             NaN
             NaN             NaN             NaN
             NaN             NaN             NaN
             NaN             NaN             NaN
             NaN             NaN             NaN
             NaN             NaN             NaN
             NaN             NaN             NaN
             NaN             NaN             NaN
             NaN             NaN             NaN
             NaN             NaN             NaN
             NaN             NaN             NaN
             NaN             NaN             NaN
             NaN             NaN             NaN
             NaN             NaN             NaN
             NaN             NaN             NaN
             NaN             NaN             NaN
             NaN             NaN             NaN
             NaN             NaN             NaN
             NaN             NaN             NaN
             NaN             NaN             NaN
             NaN             NaN             NaN
             NaN             NaN             NaN
             NaN             NaN             NaN
