Ni  O  C 
 1.0000000000000000
     7.4882608127655379    0.0000000000000000    0.0000000000000000
     3.7441304063827689    6.4850240940184634    0.0000000000000000
     0.0000000000000000    0.0000000000000000   26.1141393507181370
 Ni  O   C  
  36   7   7
Selective dynamics
Cartesian
  0.0000000000000000  0.0000000000000000 10.0000000000000000   F   F   F
  2.4960869375885126  0.0000000000000000 10.0000000000000000   F   F   F
  4.9921738751770253  0.0000000000000000 10.0000000000000000   F   F   F
  1.2480434687942563  2.1616746980061543 10.0000000000000000   F   F   F
  3.7441304063827689  2.1616746980061543 10.0000000000000000   F   F   F
  6.2402173439712811  2.1616746980061543 10.0000000000000000   F   F   F
  2.4960869375885126  4.3233493960123086 10.0000000000000000   F   F   F
  4.9921738751770253  4.3233493960123086 10.0000000000000000   F   F   F
  7.4882608127655379  4.3233493960123086 10.0000000000000000   F   F   F
  1.2480434687942563  0.7205582326687181 12.0380464502393796   F   F   F
  3.7441304063827685  0.7205582326687181 12.0380464502393796   F   F   F
  6.2402173439712820  0.7205582326687181 12.0380464502393796   F   F   F
  2.4960869375885126  2.8822329306748724 12.0380464502393796   F   F   F
  4.9921738751770253  2.8822329306748724 12.0380464502393796   F   F   F
  7.4882608127655388  2.8822329306748724 12.0380464502393796   F   F   F
  3.7441304063827689  5.0439076286810272 12.0380464502393796   F   F   F
  6.2402173439712811  5.0439076286810272 12.0380464502393796   F   F   F
  8.7363042815597947  5.0439076286810272 12.0380464502393796   F   F   F
  0.0102827119178278  1.4539249714297471 14.0702159584099658   T   T   T
  2.4962367802447010  1.4323385998185449 14.0631828343455734   T   T   T
  5.0079437031231766  1.4392943469714647 14.0802143140511582   T   T   T
  1.2511508294516762  3.6042975995912192 14.0838061509896679   T   T   T
  3.7360700837381096  3.6090621708491430 14.0505276953205396   T   T   T
  6.2471042130770904  3.5965204943740314 14.0813004807536117   T   T   T
  2.4807660902504400  5.7732711113118507 14.0626900252120723   T   T   T
  4.9935919414083738  5.7500658666667759 14.0634712410288589   T   T   T
  7.4853694577365166  5.7656388789404192 14.0977912816422730   T   T   T
 -0.0222742284042586  0.0001292126211280 16.0643102463858867   T   T   T
  2.4445865256814341 -0.0095327710284198 16.2348229177840011   T   T   T
  4.9588745195340209  0.0038494124266743 16.2627969941671680   T   T   T
  1.3000244002133678  2.1623772889888540 16.2605792089965746   T   T   T
  3.7562618496303593  2.1650111401080849 16.0637508151252497   T   T   T
  6.2731797921420505  2.1715111894880623 16.2698328646510895   T   T   T
  2.5090009005434255  4.3514864419471690 16.1239430718234189   T   T   T
  4.9833627465597861  4.2999296190788803 16.1209413873814604   T   T   T
  7.4918740550973153  4.3232663319405109 16.2043050567486446   T   T   T
  7.6831340774126673  2.9497391172623022 18.7703490345310868   T   T   T
  2.8472022670806010  2.0465967287396700 18.7730481718631239   T   T   T
  9.9256374391526272  4.8811563031266427 19.0017885103262287   T   T   T
  5.0659682189057333  3.7862336863337669 18.9993309758386246   T   T   T
  5.6245427548479130  1.0863833507821725 18.8435992660029825   T   T   T
  4.6562171025751304  6.6245318872120693 18.7568086508401315   T   T   T
  7.3008509076686634  5.7198042289416895 18.7562361459366436   T   T   T
  7.6437538086868875  2.9476486831597160 17.5922395909096814   T   T   T
  2.7647329894376829  2.0781193577453592 17.6049001435185026   T   T   T
  9.9469403905973870  4.8006932676721181 17.8521834363561638   T   T   T
  5.0457128104524998  3.8607032171461935 17.8492087530730430   T   T   T
  5.6246346284841628  1.0832624753736748 17.6733308692912701   T   T   T
  4.7395240298346817  6.6117753325293780 17.5872320867731951   T   T   T
  7.3428271226057982  5.7189645111009755 17.5779065012288811   T   T   T
