Ni  O 
 1.0000000000000000
     7.4882608127655379    0.0000000000000000    0.0000000000000000
     3.7441304063827689    6.4850240940184634    0.0000000000000000
     0.0000000000000000    0.0000000000000000   26.1141393507181370
 Ni  O  
  36   2
Selective dynamics
Cartesian
  0.0000000000000000  0.0000000000000000 10.0000000000000000   F   F   F
  2.4960869375885126  0.0000000000000000 10.0000000000000000   F   F   F
  4.9921738751770253  0.0000000000000000 10.0000000000000000   F   F   F
  1.2480434687942563  2.1616746980061543 10.0000000000000000   F   F   F
  3.7441304063827689  2.1616746980061543 10.0000000000000000   F   F   F
  6.2402173439712811  2.1616746980061543 10.0000000000000000   F   F   F
  2.4960869375885126  4.3233493960123086 10.0000000000000000   F   F   F
  4.9921738751770253  4.3233493960123086 10.0000000000000000   F   F   F
  7.4882608127655379  4.3233493960123086 10.0000000000000000   F   F   F
  1.2480434687942563  0.7205582326687181 12.0380464502393796   F   F   F
  3.7441304063827685  0.7205582326687181 12.0380464502393796   F   F   F
  6.2402173439712820  0.7205582326687181 12.0380464502393796   F   F   F
  2.4960869375885126  2.8822329306748724 12.0380464502393796   F   F   F
  4.9921738751770253  2.8822329306748724 12.0380464502393796   F   F   F
  7.4882608127655388  2.8822329306748724 12.0380464502393796   F   F   F
  3.7441304063827689  5.0439076286810272 12.0380464502393796   F   F   F
  6.2402173439712811  5.0439076286810272 12.0380464502393796   F   F   F
  8.7363042815597947  5.0439076286810272 12.0380464502393796   F   F   F
 -0.0030721154301877  1.4423741618221075 14.0847428793676226   T   T   T
  2.4987562208570018  1.4423545208669117 14.0851470632338138   T   T   T
  4.9918517893653318  1.4446476081678814 14.0651480179272639   T   T   T
  1.2476512793983012  3.5893723409783349 14.0634397008896954   T   T   T
  3.7473808797493042  3.6001379195359853 14.0649697382628958   T   T   T
  6.2361926750026120  3.6001155155058591 14.0651327539090385   T   T   T
  2.5069158324156469  5.7707473950080930 14.0636540433058297   T   T   T
  4.9918228232042408  5.7610407625933897 14.0848810764405723   T   T   T
  7.4767419581997734  5.7706517674298867 14.0636181063860679   T   T   T
 -0.0305901551635033 -0.0179732322398323 16.1616809295498065   T   T   T
  2.5256545423509196 -0.0178755876376458 16.1620906682967842   T   T   T
  4.9917558888120510 -0.0379652391401442 16.0520825245652006   T   T   T
  1.2474175148425994  2.1954518767509699 16.1622443395285913   T   T   T
  3.7421502868854883  2.1599858892774222 16.1655382281254099   T   T   T
  6.2412703677380854  2.1602489632294568 16.1650019685138737   T   T   T
  2.4628145050159347  4.3412028742422262 16.0514868769951882   T   T   T
  4.9917084401770015  4.3244483019963154 16.1650165868018192   T   T   T
  7.5206232170849896  4.3413960335117263 16.0513240901109242   T   T   T
  4.9924332682216521  2.8818645845138153 17.3126846815585260   T   T   T
  1.2467624941472544  0.7195565598892300 17.2761667205764837   T   T   T
