Ni  O  C                                
   1.00000000000000     
     6.1141393507181379    0.0000000000000000    0.0000000000000000
     0.0000000000000000    7.4882608127655379    0.0000000000000000
     0.0000000000000000    0.0000000000000000   27.9261405593559005
  Ni/0534bc51ca8  O/818f92134a0a  C/253f7b50bb8d
              36               6               6
Direct
  0.2943734469985628  0.1648915524631960  0.6441034418922840
  0.2942520482780253  0.5021838484765766  0.6440425609835145
  0.2954285620646928  0.8335456062616302  0.6496542723950895
  0.9930327078239642  0.9997771815432444  0.6089286310695456
  0.9873027252619337  0.3334440039259405  0.6135551303283648
  0.9929987236500040  0.6672099610931213  0.6089338988980586
  0.6468284673128366  0.1682848532257708  0.6008043020493261
  0.6468335746953073  0.4988517019388894  0.6008185507506738
  0.6515146955258828  0.8336550497932933  0.6012108546672863
  0.3310049566312259  0.9961765053437190  0.5649076200815131
  0.3256907818883548  0.3334897867350293  0.5639559859770955
  0.3311642657430411  0.6709090339625448  0.5649185031953223
  0.9952207008610898  0.1686963091495954  0.5365825930088306
  0.9951236585247401  0.4982578831459676  0.5365909662884931
  0.9965781899731994  0.8333779228273457  0.5353958831310877
  0.6635771242088211  0.0005236516311697  0.5154362298808479
  0.6618944970778387  0.3333856130416706  0.5155466485453104
  0.6636059334401025  0.6663665850872889  0.5154241304813922
  0.3333333333333357  0.1666666666666643  0.4870988575894089
  0.3333333333333357  0.5000000000000000  0.4870988575894089
  0.3333333333333357  0.8333333333333357  0.4870988575894089
  0.0000000000000000  0.0000000000000000  0.4612965727682337
  0.0000000000000000  0.3333333333333357  0.4612965727682337
  0.0000000000000000  0.6666666666666643  0.4612965727682337
  0.6666666666666643  0.1666666666666643  0.4354942879470585
  0.6666666666666643  0.5000000000000000  0.4354942879470585
  0.6666666666666643  0.8333333333333357  0.4354942879470585
  0.3333333333333357  0.0000000000000000  0.4096920031258833
  0.3333333333333357  0.3333333333333357  0.4096920031258833
  0.3333333333333357  0.6666666666666643  0.4096920031258833
  0.0000000000000000  0.1666666666666643  0.3838897183047010
  0.0000000000000000  0.5000000000000000  0.3838897183047010
  0.0000000000000000  0.8333333333333357  0.3838897183047010
  0.6666666666666643  0.0000000000000000  0.3580874334835258
  0.6666666666666643  0.3333333333333357  0.3580874334835258
  0.6666666666666643  0.6666666666666643  0.3580874334835258
  0.2931703072976077  0.6397354892856626  0.7406260997506848
  0.0256874782052989  0.3334219259362357  0.7178069466293096
  0.2926115644117147  0.0267502718751729  0.7406835403110037
  0.6009769501263449  0.3336867391953149  0.6974295830551469
  0.7604302535493019  0.6586142737518443  0.6945649244941592
  0.7605689141813059  0.0088367549294333  0.6945689990406478
  0.2946578046885833  0.6594125610486472  0.6992823520348566
  0.0960667575415073  0.3334741169108497  0.6785822058236519
  0.2944849287046551  0.0074909344014316  0.6993249559705177
  0.5574329229033879  0.3338253684815129  0.6556337184279855
  0.7603463280279428  0.6563831810943199  0.6521638165893577
  0.7603633899403306  0.0109751364111688  0.6521674071454413
 
             NaN             NaN             NaN
             NaN             NaN             NaN
             NaN             NaN             NaN
             NaN             NaN             NaN
             NaN             NaN             NaN
             NaN             NaN             NaN
             NaN             NaN             NaN
             NaN             NaN             NaN
             NaN             NaN             NaN
             NaN             NaN             NaN
             NaN             NaN             NaN
             NaN             NaN             NaN
             NaN             NaN             NaN
             NaN             NaN             NaN
             NaN             NaN             NaN
             NaN             NaN             NaN
             NaN             NaN             NaN
             NaN             NaN             NaN
             NaN             NaN             NaN
             NaN             NaN             NaN
             NaN             NaN             NaN
             NaN             NaN             NaN
             NaN             NaN             NaN
             NaN             NaN             NaN
             NaN             NaN             NaN
             NaN             NaN             NaN
             NaN             NaN             NaN
             NaN             NaN             NaN
             NaN             NaN             NaN
             NaN             NaN             NaN
             NaN             NaN             NaN
             NaN             NaN             NaN
             NaN             NaN             NaN
             NaN             NaN             NaN
             NaN             NaN             NaN
             NaN             NaN             NaN
             NaN             NaN             NaN
             NaN             NaN             NaN
             NaN             NaN             NaN
             NaN             NaN             NaN
             NaN             NaN             NaN
             NaN             NaN             NaN
             NaN             NaN             NaN
             NaN             NaN             NaN
             NaN             NaN             NaN
             NaN             NaN             NaN
             NaN             NaN             NaN
             NaN             NaN             NaN
