Ni  C  O 
 1.0000000000000000
     7.4882608127655379    0.0000000000000000    0.0000000000000000
     3.7441304063827689    6.4850240940184634    0.0000000000000000
     0.0000000000000000    0.0000000000000000   26.1141393507181370
 Ni  C   O  
  36   3   3
Selective dynamics
Cartesian
  0.0000000000000000  0.0000000000000000 10.0000000000000000   F   F   F
  2.4960869375885126  0.0000000000000000 10.0000000000000000   F   F   F
  4.9921738751770253  0.0000000000000000 10.0000000000000000   F   F   F
  1.2480434687942563  2.1616746980061543 10.0000000000000000   F   F   F
  3.7441304063827689  2.1616746980061543 10.0000000000000000   F   F   F
  6.2402173439712811  2.1616746980061543 10.0000000000000000   F   F   F
  2.4960869375885126  4.3233493960123086 10.0000000000000000   F   F   F
  4.9921738751770253  4.3233493960123086 10.0000000000000000   F   F   F
  7.4882608127655379  4.3233493960123086 10.0000000000000000   F   F   F
  1.2480434687942563  0.7205582326687181 12.0380464502393796   F   F   F
  3.7441304063827685  0.7205582326687181 12.0380464502393796   F   F   F
  6.2402173439712820  0.7205582326687181 12.0380464502393796   F   F   F
  2.4960869375885126  2.8822329306748724 12.0380464502393796   F   F   F
  4.9921738751770253  2.8822329306748724 12.0380464502393796   F   F   F
  7.4882608127655388  2.8822329306748724 12.0380464502393796   F   F   F
  3.7441304063827689  5.0439076286810272 12.0380464502393796   F   F   F
  6.2402173439712811  5.0439076286810272 12.0380464502393796   F   F   F
  8.7363042815597947  5.0439076286810272 12.0380464502393796   F   F   F
 -0.0041378970216604  1.4389159274814369 14.0793526098607931   T   T   T
  2.4923535760603590  1.4390051576958316 14.0566363744518217   T   T   T
  4.9878135310936971  1.4389257569350784 14.0810320068151658   T   T   T
  1.2442097087948010  3.6004362489693591 14.0804669040587456   T   T   T
  3.7400911597561297  3.6000513449861731 14.0808388533884052   T   T   T
  6.2364847628440252  3.6007570178923203 14.0563987346760779   T   T   T
  2.4927869164586598  5.7624388448275061 14.0554957510062675   T   T   T
  4.9882335176927404  5.7621782884015476 14.0793508082425962   T   T   T
  7.4844466250775223  5.7625762468351009 14.0805977691885449   T   T   T
 -0.0212987537540513 -0.0123434231793178 16.1343075878748756   T   T   T
  2.4895284769372834  0.0135984215041392 16.1366293646478205   T   T   T
  5.0008052456441643 -0.0125835716603609 16.1378405840257564   T   T   T
  1.2563069152044735  2.1490099431577776 16.1364815898386667   T   T   T
  3.7225129496104823  2.1492589048565485 16.1404107129363048   T   T   T
  6.2341745525709005  2.1755497431214059 16.1376791186713824   T   T   T
  2.4892946485248721  4.3368025509231947 16.1373253973139903   T   T   T
  5.0009087113200970  4.3113174059231580 16.1374044417571554   T   T   T
  7.4672068281034001  4.3112100326013669 16.1361912135411600   T   T   T
  6.2359452625525575  3.6007632695120302 17.4868060778745793   T   T   T
  2.4878112929179030  1.4367531636835937 17.4874070975235618   T   T   T
  9.9807300766649778  5.7615341815565131 17.4857537647266312   T   T   T
  6.2350043046954093  3.6005316939701144 18.6740156240223847   T   T   T
  2.4836470123993890  1.4346835078838249 18.6747314398971582   T   T   T
  9.9838551331800183  5.7623147088732054 18.6730369899756674   T   T   T
