Ni  O  C 
 1.0000000000000000
     7.4882608127655379    0.0000000000000000    0.0000000000000000
     3.7441304063827689    6.4850240940184634    0.0000000000000000
     0.0000000000000000    0.0000000000000000   26.1141393507181370
 Ni  O   C  
  36   6   6
Selective dynamics
Cartesian
  0.0000000000000000  0.0000000000000000 10.0000000000000000   F   F   F
  2.4960869375885126  0.0000000000000000 10.0000000000000000   F   F   F
  4.9921738751770253  0.0000000000000000 10.0000000000000000   F   F   F
  1.2480434687942563  2.1616746980061543 10.0000000000000000   F   F   F
  3.7441304063827689  2.1616746980061543 10.0000000000000000   F   F   F
  6.2402173439712811  2.1616746980061543 10.0000000000000000   F   F   F
  2.4960869375885126  4.3233493960123086 10.0000000000000000   F   F   F
  4.9921738751770253  4.3233493960123086 10.0000000000000000   F   F   F
  7.4882608127655379  4.3233493960123086 10.0000000000000000   F   F   F
  1.2480434687942563  0.7205582326687181 12.0380464502393796   F   F   F
  3.7441304063827685  0.7205582326687181 12.0380464502393796   F   F   F
  6.2402173439712820  0.7205582326687181 12.0380464502393796   F   F   F
  2.4960869375885126  2.8822329306748724 12.0380464502393796   F   F   F
  4.9921738751770253  2.8822329306748724 12.0380464502393796   F   F   F
  7.4882608127655388  2.8822329306748724 12.0380464502393796   F   F   F
  3.7441304063827689  5.0439076286810272 12.0380464502393796   F   F   F
  6.2402173439712811  5.0439076286810272 12.0380464502393796   F   F   F
  8.7363042815597947  5.0439076286810272 12.0380464502393796   F   F   F
 -0.0010371059093146  1.4420750659984305 14.0487945408157717   T   T   T
  2.5020548987643458  1.4457354198251902 14.0830422718078321   T   T   T
  4.9845156212261967  1.4443916759289208 14.0825501663052286   T   T   T
  1.2441664885913410  3.6038964078346796 14.0867744858921071   T   T   T
  3.7438272823444998  3.5951043840343320 14.0826242378816957   T   T   T
  6.2426119906440798  3.6038621869615532 14.0876723780744406   T   T   T
  2.4925763636056417  5.7622607651138598 14.0485539831304145   T   T   T
  4.9928863735560638  5.7635257337935659 14.0484049650021827   T   T   T
  7.4866252147220855  5.7610422700071222 14.0867267196758323   T   T   T
 -0.0029062859529023 -0.0012808679181699 15.9976090316837105   T   T   T
  2.4633216314386877 -0.0032314692274895 16.1771539134698301   T   T   T
  5.0180182032882703 -0.0061676076975517 16.1773354303383456   T   T   T
  1.2251363187795790  2.1380465039636816 16.1777839427699668   T   T   T
  3.7396533528194054  2.1596649655477327 16.2845352434034254   T   T   T
  6.2509145480226929  2.1345511453281576 16.1779636560094708   T   T   T
  2.5059004123635975  4.3477494357478896 16.1776720566597767   T   T   T
  4.9759468882196201  4.3487687013211840 16.1780908374196208   T   T   T
  7.4841216051152575  4.3220155442810766 16.3031432280144593   T   T   T
  7.4775621806929751  2.6936523285948204 18.7463490349158626   T   T   T
  2.3250953354746202  1.3483802736738946 18.7371912293633294   T   T   T
  8.8969187240001446  5.1319186552210212 18.7457524492914480   T   T   T
  3.7427119936794400  3.7841419473903088 18.7390366666337442   T   T   T
  5.1450982700082895  1.3414751436465808 18.7386060408864914   T   T   T
  6.0739360041026913  5.1393882427418802 18.7462133948065741   T   T   T
  7.4786324283278036  2.6967138557268537 17.5705495592164134   T   T   T
  2.3232766414024852  1.3462213806214616 17.5612810423603456   T   T   T
  8.8933697117019790  5.1313916104511996 17.5699763559103701   T   T   T
  3.7418314231490322  3.7884605334028154 17.5630863540017010   T   T   T
  5.1490353767696408  1.3410511049078022 17.5626603010538425   T   T   T
  6.0762914694230918  5.1367497379466096 17.5703707065638781   T   T   T
