Ni C  O                                 
   1.00000000000000     
     6.1141393507181379    0.0000000000000000    0.0000000000000000
     0.0000000000000000    7.4882608127655379    0.0000000000000000
     0.0000000000000000    0.0000000000000000   27.9261405593559005
  Ni/0534bc51ca8  C/253f7b50bb8d  O/818f92134a0a
              36               1               2
Selective dynamics
Direct
  0.3236591889682572  0.1667621097665588  0.6379615860111940   T   T   T
  0.3324610168062705  0.4992438498067671  0.6418939381462252   T   T   T
  0.3321666970498853  0.8356429899772309  0.6415822685466850   T   T   T
  0.9957412125136358  0.0001793678030495  0.6143815055567430   T   T   T
  0.9958589219598153  0.3332230331763526  0.6143966370432494   T   T   T
  0.9960833022047950  0.6666491931665774  0.6140847084044410   T   T   T
  0.6652186810224237  0.1665878309177558  0.5917144387379167   T   T   T
  0.6673629865887349  0.5000607168918876  0.5912248360024535   T   T   T
  0.6673774231927752  0.8331448104007393  0.5911677091183876   T   T   T
  0.3336735028864410  0.9981821812735561  0.5647942705284876   T   T   T
  0.3336761744025125  0.3351430782732265  0.5647609036653662   T   T   T
  0.3329311546526768  0.6664039485948550  0.5652687820714917   T   T   T
  0.9973289807357304  0.1666359491575520  0.5381119037249533   T   T   T
  0.9974257325396607  0.4999455089741218  0.5379802705345398   T   T   T
  0.9975229660632152  0.8332047619943310  0.5379749590372853   T   T   T
  0.6642103858416206  0.0000863355763911  0.5128846868984169   T   T   T
  0.6641643049281072  0.3331096895637558  0.5129091092581533   T   T   T
  0.6639210981283696  0.6666069837087676  0.5129187347281672   T   T   T
  0.3333333333333357  0.1666666666666643  0.4870988575894089   F   F   F
  0.3333333333333357  0.5000000000000000  0.4870988575894089   F   F   F
  0.3333333333333357  0.8333333333333357  0.4870988575894089   F   F   F
  0.0000000000000000  0.0000000000000000  0.4612965727682337   F   F   F
  0.0000000000000000  0.3333333333333357  0.4612965727682337   F   F   F
  0.0000000000000000  0.6666666666666643  0.4612965727682337   F   F   F
  0.6666666666666643  0.1666666666666643  0.4354942879470585   F   F   F
  0.6666666666666643  0.5000000000000000  0.4354942879470585   F   F   F
  0.6666666666666643  0.8333333333333357  0.4354942879470585   F   F   F
  0.3333333333333357  0.0000000000000000  0.4096920031258833   F   F   F
  0.3333333333333357  0.3333333333333357  0.4096920031258833   F   F   F
  0.3333333333333357  0.6666666666666643  0.4096920031258833   F   F   F
  0.0000000000000000  0.1666666666666643  0.3838897183047010   F   F   F
  0.0000000000000000  0.5000000000000000  0.3838897183047010   F   F   F
  0.0000000000000000  0.8333333333333357  0.3838897183047010   F   F   F
  0.6666666666666643  0.0000000000000000  0.3580874334835258   F   F   F
  0.6666666666666643  0.3333333333333357  0.3580874334835258   F   F   F
  0.6666666666666643  0.6666666666666643  0.3580874334835258   F   F   F
  0.3631072801799888  0.6631328647681300  0.7003165406048240   T   T   T
  0.3707635588867575  0.8193600650564292  0.7149706527493436   T   T   T
  0.3712399321620339  0.5079705755445545  0.7157145209262055   T   T   T
 
             NaN             NaN             NaN
             NaN             NaN             NaN
             NaN             NaN             NaN
             NaN             NaN             NaN
             NaN             NaN             NaN
             NaN             NaN             NaN
             NaN             NaN             NaN
             NaN             NaN             NaN
             NaN             NaN             NaN
             NaN             NaN             NaN
             NaN             NaN             NaN
             NaN             NaN             NaN
             NaN             NaN             NaN
             NaN             NaN             NaN
             NaN             NaN             NaN
             NaN             NaN             NaN
             NaN             NaN             NaN
             NaN             NaN             NaN
             NaN             NaN             NaN
             NaN             NaN             NaN
             NaN             NaN             NaN
             NaN             NaN             NaN
             NaN             NaN             NaN
             NaN             NaN             NaN
             NaN             NaN             NaN
             NaN             NaN             NaN
             NaN             NaN             NaN
             NaN             NaN             NaN
             NaN             NaN             NaN
             NaN             NaN             NaN
             NaN             NaN             NaN
             NaN             NaN             NaN
             NaN             NaN             NaN
             NaN             NaN             NaN
             NaN             NaN             NaN
             NaN             NaN             NaN
             NaN             NaN             NaN
             NaN             NaN             NaN
             NaN             NaN             NaN
