Ni  O  C                                
   1.00000000000000     
     6.1141393507181379    0.0000000000000000    0.0000000000000000
     0.0000000000000000    7.4882608127655379    0.0000000000000000
     0.0000000000000000    0.0000000000000000   27.9261405593559005
  Ni/0534bc51ca8  O/818f92134a0a  C/253f7b50bb8d
              36               2               2
Direct
  0.3295989923416087  0.1714383492440561  0.6398845651786402
  0.3388960090961177  0.5002385115296235  0.6474358063005496
  0.3294965249207209  0.8289923345493051  0.6398262231207852
  0.0004575157165618  0.0002174502532384  0.6150241591787236
  0.9981032631138760  0.3342842003130286  0.6145272634327128
  0.9981134055134717  0.6659289647907585  0.6145109791091841
  0.6684086168995549  0.1663999778438239  0.5913053688315912
  0.6698709152885556  0.5000560093999908  0.5912282825407615
  0.6684233609905377  0.8338696093145970  0.5912929478822235
  0.3371733289926695  0.0001505044038410  0.5650956933983480
  0.3360958646967589  0.3364849462943056  0.5645375210144934
  0.3361833138577097  0.6637367458224190  0.5645269858981052
  0.0002696077891073  0.1665702994967191  0.5386628758188152
  0.9994328484066983  0.5001167982352968  0.5382754183502101
  0.0003387427915911  0.8336532732549884  0.5386698706509208
  0.6655108361354181  0.0000784452663325  0.5129354784073001
  0.6653798332808449  0.3331777316469271  0.5130021096961173
  0.6653897722007258  0.6669746328266228  0.5129981930503504
  0.3333333333333357  0.1666666666666643  0.4870988575894089
  0.3333333333333357  0.5000000000000000  0.4870988575894089
  0.3333333333333357  0.8333333333333357  0.4870988575894089
  0.0000000000000000  0.0000000000000000  0.4612965727682337
  0.0000000000000000  0.3333333333333357  0.4612965727682337
  0.0000000000000000  0.6666666666666643  0.4612965727682337
  0.6666666666666643  0.1666666666666643  0.4354942879470585
  0.6666666666666643  0.5000000000000000  0.4354942879470585
  0.6666666666666643  0.8333333333333357  0.4354942879470585
  0.3333333333333357  0.0000000000000000  0.4096920031258833
  0.3333333333333357  0.3333333333333357  0.4096920031258833
  0.3333333333333357  0.6666666666666643  0.4096920031258833
  0.0000000000000000  0.1666666666666643  0.3838897183047010
  0.0000000000000000  0.5000000000000000  0.3838897183047010
  0.0000000000000000  0.8333333333333357  0.3838897183047010
  0.6666666666666643  0.0000000000000000  0.3580874334835258
  0.6666666666666643  0.3333333333333357  0.3580874334835258
  0.6666666666666643  0.6666666666666643  0.3580874334835258
  0.4319830608425121  0.7099550620712449  0.7341860201727570
  0.4360664248515818  0.2908754067913009  0.7340017482126768
  0.3873055126286289  0.6886755382509904  0.6936891452101719
  0.3893726171115333  0.3119563053704724  0.6936070710674755
 
             NaN             NaN             NaN
             NaN             NaN             NaN
             NaN             NaN             NaN
             NaN             NaN             NaN
             NaN             NaN             NaN
             NaN             NaN             NaN
             NaN             NaN             NaN
             NaN             NaN             NaN
             NaN             NaN             NaN
             NaN             NaN             NaN
             NaN             NaN             NaN
             NaN             NaN             NaN
             NaN             NaN             NaN
             NaN             NaN             NaN
             NaN             NaN             NaN
             NaN             NaN             NaN
             NaN             NaN             NaN
             NaN             NaN             NaN
             NaN             NaN             NaN
             NaN             NaN             NaN
             NaN             NaN             NaN
             NaN             NaN             NaN
             NaN             NaN             NaN
             NaN             NaN             NaN
             NaN             NaN             NaN
             NaN             NaN             NaN
             NaN             NaN             NaN
             NaN             NaN             NaN
             NaN             NaN             NaN
             NaN             NaN             NaN
             NaN             NaN             NaN
             NaN             NaN             NaN
             NaN             NaN             NaN
             NaN             NaN             NaN
             NaN             NaN             NaN
             NaN             NaN             NaN
             NaN             NaN             NaN
             NaN             NaN             NaN
             NaN             NaN             NaN
             NaN             NaN             NaN
