Ni  O  C                                
   1.00000000000000     
     6.1141393507181379    0.0000000000000000    0.0000000000000000
     0.0000000000000000    7.4882608127655379    0.0000000000000000
     0.0000000000000000    0.0000000000000000   27.9261405593559005
  Ni/0534bc51ca8  O/818f92134a0a  C/253f7b50bb8d
              36               3               3
Direct
  0.3525560932975225  0.1652097309495133  0.6469695507352071
  0.3252423093346124  0.4960501418397456  0.6425362263683496
  0.3273498057026600  0.8354846916054370  0.6417650209046712
  0.9976116371477772  0.0038975285730629  0.6138938028463414
  0.9968220579969866  0.3291741930563106  0.6140008599555244
  0.9972161565974673  0.6664650194974584  0.6168206641336980
  0.6692240672274323  0.1667649522935193  0.5903549957653595
  0.6671882497751866  0.5006746109026210  0.5912165773145617
  0.6682762190669962  0.8324524084108660  0.5909596822729526
  0.3349660364837490  0.0017061836883556  0.5649047263464695
  0.3345439173778857  0.3312687720823249  0.5651573533556089
  0.3364775809964300  0.6660792067275452  0.5646068841837959
  0.9998430168483523  0.1665605286601348  0.5380353462566845
  0.0002046890572558  0.5003494187888577  0.5387827737646873
  0.0006634492715776  0.8326249499028293  0.5387392934062234
  0.6650107123414060  0.9995417296661202  0.5128705375190918
  0.6648532908694236  0.3338502083674939  0.5129373027545441
  0.6657204585799477  0.6665792150500778  0.5129680606538471
  0.3333333333333357  0.1666666666666643  0.4870988575894089
  0.3333333333333357  0.5000000000000000  0.4870988575894089
  0.3333333333333357  0.8333333333333357  0.4870988575894089
  0.0000000000000000  0.0000000000000000  0.4612965727682337
  0.0000000000000000  0.3333333333333357  0.4612965727682337
  0.0000000000000000  0.6666666666666643  0.4612965727682337
  0.6666666666666643  0.1666666666666643  0.4354942879470585
  0.6666666666666643  0.5000000000000000  0.4354942879470585
  0.6666666666666643  0.8333333333333357  0.4354942879470585
  0.3333333333333357  0.0000000000000000  0.4096920031258833
  0.3333333333333357  0.3333333333333357  0.4096920031258833
  0.3333333333333357  0.6666666666666643  0.4096920031258833
  0.0000000000000000  0.1666666666666643  0.3838897183047010
  0.0000000000000000  0.5000000000000000  0.3838897183047010
  0.0000000000000000  0.8333333333333357  0.3838897183047010
  0.6666666666666643  0.0000000000000000  0.3580874334835258
  0.6666666666666643  0.3333333333333357  0.3580874334835258
  0.6666666666666643  0.6666666666666643  0.3580874334835258
  0.0723447787854141  0.6714665166296285  0.7188023872400393
  0.4952855605129400  0.3662332092128935  0.7316343254699902
  0.5643115640997607  0.9590274030129393  0.7239179611850659
  0.1492649629334863  0.6691410752590912  0.6797686185124121
  0.4242770269484595  0.3487175023676983  0.6929633077176334
  0.4615340693383914  0.9781897446494838  0.6888736511101996
 
             NaN             NaN             NaN
             NaN             NaN             NaN
             NaN             NaN             NaN
             NaN             NaN             NaN
             NaN             NaN             NaN
             NaN             NaN             NaN
             NaN             NaN             NaN
             NaN             NaN             NaN
             NaN             NaN             NaN
             NaN             NaN             NaN
             NaN             NaN             NaN
             NaN             NaN             NaN
             NaN             NaN             NaN
             NaN             NaN             NaN
             NaN             NaN             NaN
             NaN             NaN             NaN
             NaN             NaN             NaN
             NaN             NaN             NaN
             NaN             NaN             NaN
             NaN             NaN             NaN
             NaN             NaN             NaN
             NaN             NaN             NaN
             NaN             NaN             NaN
             NaN             NaN             NaN
             NaN             NaN             NaN
             NaN             NaN             NaN
             NaN             NaN             NaN
             NaN             NaN             NaN
             NaN             NaN             NaN
             NaN             NaN             NaN
             NaN             NaN             NaN
             NaN             NaN             NaN
             NaN             NaN             NaN
             NaN             NaN             NaN
             NaN             NaN             NaN
             NaN             NaN             NaN
             NaN             NaN             NaN
             NaN             NaN             NaN
             NaN             NaN             NaN
             NaN             NaN             NaN
             NaN             NaN             NaN
             NaN             NaN             NaN
