INCAR created by Atomic Simulation Environment
 ENCUT = 544.228000
 POTIM = 0.000000
 SIGMA = 0.100000
 ZAB_VDW = -1.886700
 EDIFF = 1.00e-07
 EDIFFG = 0.00e+00
 ALGO = Fast
 GGA = BF
 IBRION = -1
 ISMEAR = 1
 ISPIN = 2
 ISYM = 0
 IWAVPR = 11
 NELM = 130
 NSW = 0
 NCORE = 8
 LUSE_VDW = .TRUE.
 INTERACTIVE = .TRUE.
 LREAL = Auto
 MAGMOM = 42*0.6000 
 LBEEFENS = .TRUE.
