Ni  O  C                                
   1.00000000000000     
     6.1141393507181379    0.0000000000000000    0.0000000000000000
     0.0000000000000000    7.4882608127655379    0.0000000000000000
     0.0000000000000000    0.0000000000000000   27.9261405593559005
  Ni/0534bc51ca8  O/818f92134a0a  C/253f7b50bb8d
              36               4               4
Direct
  0.3202159367864184  0.1675502527639097  0.6477597487840185
  0.3404658093042130  0.5029419275936675  0.6428310440070675
  0.3401607033101115  0.8320985237394325  0.6426983576529892
  0.9945444984330436  0.9987983172870258  0.6167138432546437
  0.9946932637216008  0.3352238776862109  0.6167390248252076
  0.9989686009751892  0.6670557157085071  0.6133961009294921
  0.6609655814901956  0.1667974154659788  0.5944918192577404
  0.6695388580011468  0.5016706460686322  0.5895378789534647
  0.6694007337768895  0.8319292835391536  0.5895342015564822
  0.3337824665138882  0.0021249614210674  0.5654165977819900
  0.3340107049795762  0.3320345414865074  0.5654666484239499
  0.3342845269697108  0.6670142843678377  0.5643967933074379
  0.9992213958421772  0.1669869088636489  0.5383867597218881
  0.0008662679687319  0.4992199666249633  0.5381606798463565
  0.0007434720985202  0.8344846323155934  0.5381581003850258
  0.6651036335326879  0.0010766575287064  0.5131471102426985
  0.6650772842243953  0.3324699649171166  0.5131484741787347
  0.6658214702998464  0.6667836979807404  0.5124160592008025
  0.3333333333333357  0.1666666666666643  0.4870988575894089
  0.3333333333333357  0.5000000000000000  0.4870988575894089
  0.3333333333333357  0.8333333333333357  0.4870988575894089
  0.0000000000000000  0.0000000000000000  0.4612965727682337
  0.0000000000000000  0.3333333333333357  0.4612965727682337
  0.0000000000000000  0.6666666666666643  0.4612965727682337
  0.6666666666666643  0.1666666666666643  0.4354942879470585
  0.6666666666666643  0.5000000000000000  0.4354942879470585
  0.6666666666666643  0.8333333333333357  0.4354942879470585
  0.3333333333333357  0.0000000000000000  0.4096920031258833
  0.3333333333333357  0.3333333333333357  0.4096920031258833
  0.3333333333333357  0.6666666666666643  0.4096920031258833
  0.0000000000000000  0.1666666666666643  0.3838897183047010
  0.0000000000000000  0.5000000000000000  0.3838897183047010
  0.0000000000000000  0.8333333333333357  0.3838897183047010
  0.6666666666666643  0.0000000000000000  0.3580874334835258
  0.6666666666666643  0.3333333333333357  0.3580874334835258
  0.6666666666666643  0.6666666666666643  0.3580874334835258
  0.6312759845714098  0.6682941966077749  0.7124648010892258
  0.2098085302591315  0.3690223844411875  0.7344406260548766
  0.2101685389724111  0.9657376718916524  0.7343748215451882
  0.7709651482858604  0.1667288416531605  0.6961965931002752
  0.5041867274851271  0.6679728949664465  0.6809651251575701
  0.2649015440229974  0.3523318764822037  0.6944927750936003
  0.2647503047049256  0.9827802321709882  0.6944082142583667
  0.8145210325612240  0.1666875362892100  0.6545574787536381
 
             NaN             NaN             NaN
             NaN             NaN             NaN
             NaN             NaN             NaN
             NaN             NaN             NaN
             NaN             NaN             NaN
             NaN             NaN             NaN
             NaN             NaN             NaN
             NaN             NaN             NaN
             NaN             NaN             NaN
             NaN             NaN             NaN
             NaN             NaN             NaN
             NaN             NaN             NaN
             NaN             NaN             NaN
             NaN             NaN             NaN
             NaN             NaN             NaN
             NaN             NaN             NaN
             NaN             NaN             NaN
             NaN             NaN             NaN
             NaN             NaN             NaN
             NaN             NaN             NaN
             NaN             NaN             NaN
             NaN             NaN             NaN
             NaN             NaN             NaN
             NaN             NaN             NaN
             NaN             NaN             NaN
             NaN             NaN             NaN
             NaN             NaN             NaN
             NaN             NaN             NaN
             NaN             NaN             NaN
             NaN             NaN             NaN
             NaN             NaN             NaN
             NaN             NaN             NaN
             NaN             NaN             NaN
             NaN             NaN             NaN
             NaN             NaN             NaN
             NaN             NaN             NaN
             NaN             NaN             NaN
             NaN             NaN             NaN
             NaN             NaN             NaN
             NaN             NaN             NaN
             NaN             NaN             NaN
             NaN             NaN             NaN
             NaN             NaN             NaN
             NaN             NaN             NaN
