Ni  O  C                                
   1.00000000000000     
     7.4882608127655379    0.0000000000000000    0.0000000000000000
     0.0000000000000000    7.4882608127655379    0.0000000000000000
     0.0000000000000000    0.0000000000000000   25.2950000000000017
  Ni/0534bc51ca8  O/818f92134a0a  C/253f7b50bb8d
              36               1               1
Selective dynamics
Direct
  0.1666666666666643  0.1666666666666643  0.3953350464518692   F   F   F
  0.5000000000000000  0.1666666666666643  0.3953350464518692   F   F   F
  0.8333333333333357  0.1666666666666643  0.3953350464518692   F   F   F
  0.1666666666666643  0.5000000000000000  0.3953350464518692   F   F   F
  0.5000000000000000  0.5000000000000000  0.3953350464518692   F   F   F
  0.8333333333333357  0.5000000000000000  0.3953350464518692   F   F   F
  0.1666666666666643  0.8333333333333357  0.3953350464518692   F   F   F
  0.5000000000000000  0.8333333333333357  0.3953350464518692   F   F   F
  0.8333333333333357  0.8333333333333357  0.3953350464518692   F   F   F
  0.0000000000000000  0.0000000000000000  0.4651116821506207   F   F   F
  0.3333333333333357  0.0000000000000000  0.4651116821506207   F   F   F
  0.6666666666666643  0.0000000000000000  0.4651116821506207   F   F   F
  0.0000000000000000  0.3333333333333357  0.4651116821506207   F   F   F
  0.3333333333333357  0.3333333333333357  0.4651116821506207   F   F   F
  0.6666666666666643  0.3333333333333357  0.4651116821506207   F   F   F
  0.0000000000000000  0.6666666666666643  0.4651116821506207   F   F   F
  0.3333333333333357  0.6666666666666643  0.4651116821506207   F   F   F
  0.6666666666666643  0.6666666666666643  0.4651116821506207   F   F   F
  0.1668238720272797  0.1668186259605733  0.5359389261205720   T   T   T
  0.4998058231900657  0.1657508460064747  0.5354421056586318   T   T   T
  0.8327642354475771  0.1668140296932634  0.5359227398073756   T   T   T
  0.1657448038697424  0.4998057106924065  0.5354416050562136   T   T   T
  0.4997275506290464  0.4997457542572192  0.5337789563180451   T   T   T
  0.8335807753331608  0.4999150598336755  0.5354390597254692   T   T   T
  0.1668169406969255  0.8327513350253923  0.5359203635397591   T   T   T
  0.4999168353449832  0.8335920089407551  0.5354407820523690   T   T   T
  0.8327871115173338  0.8327937983360485  0.5359254458136888   T   T   T
  0.9998737129273820  0.9998657249165390  0.6032878590232684   T   T   T
  0.3334570177747977  0.9996146480441439  0.6033809956212082   T   T   T
  0.6663005104831825  0.9996549565090476  0.6033999973675535   T   T   T
  0.9996127110066908  0.3334768864453466  0.6033820730474915   T   T   T
  0.3359787324175940  0.3359776162000188  0.6050859632247949   T   T   T
  0.6633197620894506  0.3360592128489301  0.6051352563642425   T   T   T
  0.9996481639915231  0.6662958526189726  0.6033956845884276   T   T   T
  0.3360445166363846  0.6633205970980569  0.6051424116463693   T   T   T
  0.6632130527740330  0.6632040899943448  0.6052244674601539   T   T   T
  0.4989149140916425  0.4989183659357153  0.6963420577652855   T   T   T
  0.4994785950727660  0.4994806621492316  0.6484493281351362   T   T   T
 
             NaN             NaN             NaN
             NaN             NaN             NaN
             NaN             NaN             NaN
             NaN             NaN             NaN
             NaN             NaN             NaN
             NaN             NaN             NaN
             NaN             NaN             NaN
             NaN             NaN             NaN
             NaN             NaN             NaN
             NaN             NaN             NaN
             NaN             NaN             NaN
             NaN             NaN             NaN
             NaN             NaN             NaN
             NaN             NaN             NaN
             NaN             NaN             NaN
             NaN             NaN             NaN
             NaN             NaN             NaN
             NaN             NaN             NaN
             NaN             NaN             NaN
             NaN             NaN             NaN
             NaN             NaN             NaN
             NaN             NaN             NaN
             NaN             NaN             NaN
             NaN             NaN             NaN
             NaN             NaN             NaN
             NaN             NaN             NaN
             NaN             NaN             NaN
             NaN             NaN             NaN
             NaN             NaN             NaN
             NaN             NaN             NaN
             NaN             NaN             NaN
             NaN             NaN             NaN
             NaN             NaN             NaN
             NaN             NaN             NaN
             NaN             NaN             NaN
             NaN             NaN             NaN
             NaN             NaN             NaN
             NaN             NaN             NaN
