Ni  O                                   
   1.00000000000000     
     7.4882608127655379    0.0000000000000000    0.0000000000000000
     0.0000000000000000    7.4882608127655379    0.0000000000000000
     0.0000000000000000    0.0000000000000000   25.2950000000000017
  Ni/0534bc51ca8  O/818f92134a0a
              36               9
Selective dynamics
Direct
  0.1666666666666643  0.1666666666666643  0.3953350464518692   F   F   F
  0.5000000000000000  0.1666666666666643  0.3953350464518692   F   F   F
  0.8333333333333357  0.1666666666666643  0.3953350464518692   F   F   F
  0.1666666666666643  0.5000000000000000  0.3953350464518692   F   F   F
  0.5000000000000000  0.5000000000000000  0.3953350464518692   F   F   F
  0.8333333333333357  0.5000000000000000  0.3953350464518692   F   F   F
  0.1666666666666643  0.8333333333333357  0.3953350464518692   F   F   F
  0.5000000000000000  0.8333333333333357  0.3953350464518692   F   F   F
  0.8333333333333357  0.8333333333333357  0.3953350464518692   F   F   F
  0.0000000000000000  0.0000000000000000  0.4651116821506207   F   F   F
  0.3333333333333357  0.0000000000000000  0.4651116821506207   F   F   F
  0.6666666666666643  0.0000000000000000  0.4651116821506207   F   F   F
  0.0000000000000000  0.3333333333333357  0.4651116821506207   F   F   F
  0.3333333333333357  0.3333333333333357  0.4651116821506207   F   F   F
  0.6666666666666643  0.3333333333333357  0.4651116821506207   F   F   F
  0.0000000000000000  0.6666666666666643  0.4651116821506207   F   F   F
  0.3333333333333357  0.6666666666666643  0.4651116821506207   F   F   F
  0.6666666666666643  0.6666666666666643  0.4651116821506207   F   F   F
  0.1778024007361765  0.1640490889624928  0.5375245201675298   T   T   T
  0.5049315472498819  0.1587440117980208  0.5355478821151891   T   T   T
  0.8388922454844092  0.1716546902871130  0.5357842688031553   T   T   T
  0.1676041896473563  0.5009592604561561  0.5282285622769791   T   T   T
  0.4996259890807480  0.4909176360744425  0.5341169595724224   T   T   T
  0.8309069514580969  0.5104722286604684  0.5374467399523724   T   T   T
  0.1578090604952465  0.8327192399171892  0.5342109254711929   T   T   T
  0.4964959786703176  0.8296087773111722  0.5345306401014653   T   T   T
  0.8255567690489656  0.8375931148588336  0.5355729063326038   T   T   T
  0.0093086899355512  0.0476247127077514  0.6506597564246093   T   T   T
  0.3163264695687715  0.9657430788569883  0.6155320142939757   T   T   T
  0.6516794326828474  0.9835614354039706  0.6212729424257901   T   T   T
  0.0436342687125872  0.3761472054375830  0.6041028950360285   T   T   T
  0.3779746308889074  0.3522997189206194  0.6564463605468944   T   T   T
  0.7156134916980506  0.3410699452385089  0.6509247443826993   T   T   T
  0.0204912343602004  0.7099759436841637  0.6565632600603735   T   T   T
  0.3127880075411440  0.6450321549990150  0.5972993238990227   T   T   T
  0.6336845117945060  0.6477737336099594  0.6156541658913284   T   T   T
  0.5627054867714136  0.5011600520603210  0.6781052306025259   T   T   T
  0.2027526127290074  0.1904298387789609  0.6224328410123761   T   T   T
  0.8433806994916182  0.8783554727683480  0.6678036095919424   T   T   T
  0.8322211900784424  0.1643606762299683  0.6111831350382744   T   T   T
  0.1695622080731454  0.8950274506607840  0.6779355840713563   T   T   T
  0.5460393558044601  0.1750095074709321  0.6677345390478919   T   T   T
  0.8583237334839282  0.5347188526859341  0.6229382202397247   T   T   T
  0.1919624112359415  0.5238202357617610  0.6520015999304576   T   T   T
  0.4838084299315781  0.8156186992947525  0.6405437688348954   T   T   T
 
             NaN             NaN             NaN
             NaN             NaN             NaN
             NaN             NaN             NaN
             NaN             NaN             NaN
             NaN             NaN             NaN
             NaN             NaN             NaN
             NaN             NaN             NaN
             NaN             NaN             NaN
             NaN             NaN             NaN
             NaN             NaN             NaN
             NaN             NaN             NaN
             NaN             NaN             NaN
             NaN             NaN             NaN
             NaN             NaN             NaN
             NaN             NaN             NaN
             NaN             NaN             NaN
             NaN             NaN             NaN
             NaN             NaN             NaN
             NaN             NaN             NaN
             NaN             NaN             NaN
             NaN             NaN             NaN
             NaN             NaN             NaN
             NaN             NaN             NaN
             NaN             NaN             NaN
             NaN             NaN             NaN
             NaN             NaN             NaN
             NaN             NaN             NaN
             NaN             NaN             NaN
             NaN             NaN             NaN
             NaN             NaN             NaN
             NaN             NaN             NaN
             NaN             NaN             NaN
             NaN             NaN             NaN
             NaN             NaN             NaN
             NaN             NaN             NaN
             NaN             NaN             NaN
             NaN             NaN             NaN
             NaN             NaN             NaN
             NaN             NaN             NaN
             NaN             NaN             NaN
             NaN             NaN             NaN
             NaN             NaN             NaN
             NaN             NaN             NaN
             NaN             NaN             NaN
             NaN             NaN             NaN
