Ni O  C                                 
   1.00000000000000     
     6.1141393507181379    0.0000000000000000    0.0000000000000000
     0.0000000000000000    7.4882608127655379    0.0000000000000000
     0.0000000000000000    0.0000000000000000   27.9261405593559005
  Ni/0534bc51ca8  O/818f92134a0a  C/253f7b50bb8d
              36               1               1
Selective dynamics
Direct
  0.3269054244040817  0.1665521937332741  0.6389803105331211   T   T   T
  0.3284312562823359  0.5032613466721401  0.6408265291681516   T   T   T
  0.3285644253182198  0.8297303641937859  0.6408088809260093   T   T   T
  0.9993112162605797  0.0005082997105248  0.6150291637654846   T   T   T
  0.9992083113253969  0.3328497090550400  0.6150468163975162   T   T   T
  0.9961429149900454  0.6666891467846980  0.6143802694260430   T   T   T
  0.6658214216723692  0.1666918849565491  0.5922129963260971   T   T   T
  0.6680461102656210  0.4992977888058334  0.5915472205102930   T   T   T
  0.6681940717535966  0.8341684756693937  0.5914961929777576   T   T   T
  0.3355566827851746  0.9993921821317073  0.5647587524377329   T   T   T
  0.3354677910077086  0.3339385922140536  0.5647717143714743   T   T   T
  0.3358644594456379  0.6666538445036281  0.5634785564669684   T   T   T
  0.9978829723078775  0.1667288642561431  0.5385947074135800   T   T   T
  0.9987681317040256  0.4997964589538242  0.5382869314650449   T   T   T
  0.9989225235983810  0.8336338616822800  0.5382681937019740   T   T   T
  0.6649552047743157  0.0002961712728364  0.5131055681490793   T   T   T
  0.6649042395738363  0.3331493148286597  0.5131149709975986   T   T   T
  0.6658580686680864  0.6667090245460656  0.5130312189852901   T   T   T
  0.3333333333333357  0.1666666666666643  0.4870988575894089   F   F   F
  0.3333333333333357  0.5000000000000000  0.4870988575894089   F   F   F
  0.3333333333333357  0.8333333333333357  0.4870988575894089   F   F   F
  0.0000000000000000  0.0000000000000000  0.4612965727682337   F   F   F
  0.0000000000000000  0.3333333333333357  0.4612965727682337   F   F   F
  0.0000000000000000  0.6666666666666643  0.4612965727682337   F   F   F
  0.6666666666666643  0.1666666666666643  0.4354942879470585   F   F   F
  0.6666666666666643  0.5000000000000000  0.4354942879470585   F   F   F
  0.6666666666666643  0.8333333333333357  0.4354942879470585   F   F   F
  0.3333333333333357  0.0000000000000000  0.4096920031258833   F   F   F
  0.3333333333333357  0.3333333333333357  0.4096920031258833   F   F   F
  0.3333333333333357  0.6666666666666643  0.4096920031258833   F   F   F
  0.0000000000000000  0.1666666666666643  0.3838897183047010   F   F   F
  0.0000000000000000  0.5000000000000000  0.3838897183047010   F   F   F
  0.0000000000000000  0.8333333333333357  0.3838897183047010   F   F   F
  0.6666666666666643  0.0000000000000000  0.3580874334835258   F   F   F
  0.6666666666666643  0.3333333333333357  0.3580874334835258   F   F   F
  0.6666666666666643  0.6666666666666643  0.3580874334835258   F   F   F
  0.3901092854295953  0.6666135010687952  0.7336319609221107   T   T   T
  0.3627231222874201  0.6663857815043457  0.6918686613747340   T   T   T
 
             NaN             NaN             NaN
             NaN             NaN             NaN
             NaN             NaN             NaN
             NaN             NaN             NaN
             NaN             NaN             NaN
             NaN             NaN             NaN
             NaN             NaN             NaN
             NaN             NaN             NaN
             NaN             NaN             NaN
             NaN             NaN             NaN
             NaN             NaN             NaN
             NaN             NaN             NaN
             NaN             NaN             NaN
             NaN             NaN             NaN
             NaN             NaN             NaN
             NaN             NaN             NaN
             NaN             NaN             NaN
             NaN             NaN             NaN
             NaN             NaN             NaN
             NaN             NaN             NaN
             NaN             NaN             NaN
             NaN             NaN             NaN
             NaN             NaN             NaN
             NaN             NaN             NaN
             NaN             NaN             NaN
             NaN             NaN             NaN
             NaN             NaN             NaN
             NaN             NaN             NaN
             NaN             NaN             NaN
             NaN             NaN             NaN
             NaN             NaN             NaN
             NaN             NaN             NaN
             NaN             NaN             NaN
             NaN             NaN             NaN
             NaN             NaN             NaN
             NaN             NaN             NaN
             NaN             NaN             NaN
             NaN             NaN             NaN
