Ni O  C 
 1.0000000000000000
     7.4882608127655379    0.0000000000000000    0.0000000000000000
     3.7441304063827689    6.4850240940184634    0.0000000000000000
     0.0000000000000000    0.0000000000000000   26.1141393507181370
 Ni  O   C  
  36   8   8
Selective dynamics
Cartesian
  0.0000000000000000  0.0000000000000000 10.0000000000000000   F   F   F
  2.4960869375885126  0.0000000000000000 10.0000000000000000   F   F   F
  4.9921738751770253  0.0000000000000000 10.0000000000000000   F   F   F
  1.2480434687942563  2.1616746980061543 10.0000000000000000   F   F   F
  3.7441304063827689  2.1616746980061543 10.0000000000000000   F   F   F
  6.2402173439712811  2.1616746980061543 10.0000000000000000   F   F   F
  2.4960869375885126  4.3233493960123086 10.0000000000000000   F   F   F
  4.9921738751770253  4.3233493960123086 10.0000000000000000   F   F   F
  7.4882608127655379  4.3233493960123086 10.0000000000000000   F   F   F
  1.2480434687942563  0.7205582326687181 12.0380464502393796   F   F   F
  3.7441304063827685  0.7205582326687181 12.0380464502393796   F   F   F
  6.2402173439712820  0.7205582326687181 12.0380464502393796   F   F   F
  2.4960869375885126  2.8822329306748724 12.0380464502393796   F   F   F
  4.9921738751770253  2.8822329306748724 12.0380464502393796   F   F   F
  7.4882608127655388  2.8822329306748724 12.0380464502393796   F   F   F
  3.7441304063827689  5.0439076286810272 12.0380464502393796   F   F   F
  6.2402173439712811  5.0439076286810272 12.0380464502393796   F   F   F
  8.7363042815597947  5.0439076286810272 12.0380464502393796   F   F   F
 -0.0016700621681594  1.4375221638436004 14.0642702477669506   T   T   T
  2.4992143026115703  1.4375958184140933 14.0639103920929216   T   T   T
  4.9926062999165657  1.4402767571737771 14.0747965362634115   T   T   T
  1.2483516574051250  3.6020270273892914 14.0957053198426454   T   T   T
  3.7485267958120470  3.6016903054044653 14.0634102348673800   T   T   T
  6.2372766655886824  3.6017257046888482 14.0639492355281099   T   T   T
  2.4980750204715432  5.7672196212029299 14.0633554784056880   T   T   T
  4.9930871953471971  5.7639655985681424 14.0694397705096943   T   T   T
  7.4876918465405300  5.7667977990533581 14.0635935292970942   T   T   T
 -0.0023304656283896 -0.0003712359398700 16.2175457355824300   T   T   T
  2.4955987757929932 -0.0014664750229677 16.2170629313923094   T   T   T
  4.9910484024169497 -0.0141718137796848 16.2101865192017343   T   T   T
  1.2474989033388633  2.1466899968908359 16.1773065836034462   T   T   T
  3.7326339522501999  2.1659915659572717 16.2098701204365554   T   T   T
  6.2498102085483058  2.1664794789825965 16.2099863207238073   T   T   T
  2.5074966130977514  4.3290851779800850 16.1761348325211429   T   T   T
  4.9904480115058618  4.3216660724758738 16.2167542483533360   T   T   T
  7.4751138399291772  4.3283891285035949 16.1780944562845477   T   T   T
  6.3084106255435204  3.6022118887689918 18.7230387076159701   T   T   T
  2.4587624722420118  1.5014109663962825 18.7233178708084615   T   T   T
  9.9461079949416966  5.6974576293776025 18.7234039886400474   T   T   T
  3.6691963080107519  3.6013035074124269 18.7226200034055168   T   T   T
  4.9914027661575098  1.4387268821845700 18.7197817844338061   T   T   T
  4.9899680430139854  5.7640787004595353 18.7333291734362213   T   T   T
  7.5223903278702906  5.6983493823281872 18.7239989297671201   T   T   T
  7.5241300694509272  1.5050554378585443 18.7238148652653962   T   T   T
  6.3449780120099808  3.6064520733834455 17.5524999017363825   T   T   T
  2.4371466491039406  1.5310516072576525 17.5528605079642759   T   T   T
  9.9315607056730784  5.6648909452312273 17.5528136107993546   T   T   T
  3.6330694787423861  3.6054500835679613 17.5520555890802683   T   T   T
  4.9914473379511035  1.4388359438952578 17.5518890671489309   T   T   T
  4.9895922076062158  5.7642860171866497 17.5640622133306223   T   T   T
  7.5374462897411343  5.6646600899068265 17.5535290878153276   T   T   T
  7.5459540088149417  1.5343765012360102 17.5532416467687291   T   T   T
