INCAR created by Atomic Simulation Environment
 ENCUT = 544.000000
 POTIM = 0.000000
 SIGMA = 0.100000
 ZAB_VDW = -1.886700
 EDIFF = 1.00e-08
 EDIFFG = 0.00e+00
 ALGO = Normal
 GGA = BF
 IBRION = -1
 ISMEAR = 1
 ISYM = 0
 IWAVPR = 11
 NELM = 140
 NSW = 2000
 NCORE = 8
 LUSE_VDW = .TRUE.
 INTERACTIVE = .TRUE.
 LREAL = Auto
 ISPIN = 2
 MAGMOM = 48*1.5000
