Ni  O                                   
   1.00000000000000     
     7.4882608127655379    0.0000000000000000    0.0000000000000000
     3.7441304063827689    6.4850240940184634    0.0000000000000000
     0.0000000000000000    0.0000000000000000   26.1141393507181370
  Ni/0534bc51ca8  O/818f92134a0a
              36               3
Selective dynamics
Direct
  0.0000000000000000  0.0000000000000000  0.3829343125460909   F   F   F
  0.3333333333333357  0.0000000000000000  0.3829343125460909   F   F   F
  0.6666666666666643  0.0000000000000000  0.3829343125460909   F   F   F
  0.0000000000000000  0.3333333333333357  0.3829343125460909   F   F   F
  0.3333333333333357  0.3333333333333357  0.3829343125460909   F   F   F
  0.6666666666666643  0.3333333333333357  0.3829343125460909   F   F   F
  0.0000000000000000  0.6666666666666643  0.3829343125460909   F   F   F
  0.3333333333333357  0.6666666666666643  0.3829343125460909   F   F   F
  0.6666666666666643  0.6666666666666643  0.3829343125460909   F   F   F
  0.1111111111111143  0.1111111111111143  0.4609781041820327   F   F   F
  0.4444444444444429  0.1111111111111143  0.4609781041820327   F   F   F
  0.7777777777777786  0.1111111111111143  0.4609781041820327   F   F   F
  0.1111111111111143  0.4444444444444429  0.4609781041820327   F   F   F
  0.4444444444444429  0.4444444444444429  0.4609781041820327   F   F   F
  0.7777777777777786  0.4444444444444429  0.4609781041820327   F   F   F
  0.1111111111111143  0.7777777777777786  0.4609781041820327   F   F   F
  0.4444444444444429  0.7777777777777786  0.4609781041820327   F   F   F
  0.7777777777777786  0.7777777777777786  0.4609781041820327   F   F   F
  0.8874774233271410  0.2221955538555633  0.5388393497247108   T   T   T
  0.2223120474683569  0.2223080598311924  0.5388394644344530   T   T   T
  0.5555534740578025  0.2208454689696921  0.5388454508065763   T   T   T
  0.8888852966614991  0.5541069423363609  0.5388522657802284   T   T   T
  0.2208522657172125  0.5555616528559142  0.5388425169612674   T   T   T
  0.5556939778400718  0.5557044526264718  0.5388348960576934   T   T   T
  0.8889317125013250  0.8889481829141701  0.5388135257473792   T   T   T
  0.2221833576765349  0.8874951565931255  0.5388397967982783   T   T   T
  0.5540897347239877  0.8889015886918230  0.5388529645095446   T   T   T
  0.9989477091475081  0.9989425614754666  0.6178770371609303   T   T   T
  0.3327085023701812  0.9990140553444746  0.6178815552664219   T   T   T
  0.6656693887212839  0.9994373679061255  0.6178782032292744   T   T   T
  0.9990398747030227  0.3326824804937019  0.6178809231195146   T   T   T
  0.3323544165267265  0.3323387890597616  0.6179026397703282   T   T   T
  0.6661138571314709  0.3323311526551649  0.6178777349978333   T   T   T
  0.9994640734520814  0.6656552750566860  0.6178745786612367   T   T   T
  0.3323461996797406  0.6660954311450027  0.6178785298228107   T   T   T
  0.6657669753414268  0.6657528892399398  0.6179550367734166   T   T   T
  0.4435491625115375  0.4435482805210569  0.6618967117553893   T   T   T
  0.1101742277325215  0.1101565554579409  0.6618979791101012   T   T   T
  0.7770759046380249  0.7770415558472692  0.6619085534383871   T   T   T
 
             NaN             NaN             NaN
             NaN             NaN             NaN
             NaN             NaN             NaN
             NaN             NaN             NaN
             NaN             NaN             NaN
             NaN             NaN             NaN
             NaN             NaN             NaN
             NaN             NaN             NaN
             NaN             NaN             NaN
             NaN             NaN             NaN
             NaN             NaN             NaN
             NaN             NaN             NaN
             NaN             NaN             NaN
             NaN             NaN             NaN
             NaN             NaN             NaN
             NaN             NaN             NaN
             NaN             NaN             NaN
             NaN             NaN             NaN
             NaN             NaN             NaN
             NaN             NaN             NaN
             NaN             NaN             NaN
             NaN             NaN             NaN
             NaN             NaN             NaN
             NaN             NaN             NaN
             NaN             NaN             NaN
             NaN             NaN             NaN
             NaN             NaN             NaN
             NaN             NaN             NaN
             NaN             NaN             NaN
             NaN             NaN             NaN
             NaN             NaN             NaN
             NaN             NaN             NaN
             NaN             NaN             NaN
             NaN             NaN             NaN
             NaN             NaN             NaN
             NaN             NaN             NaN
             NaN             NaN             NaN
             NaN             NaN             NaN
             NaN             NaN             NaN
