Ni  O 
 1.0000000000000000
     7.4882608127655379    0.0000000000000000    0.0000000000000000
     3.7441304063827689    6.4850240940184634    0.0000000000000000
     0.0000000000000000    0.0000000000000000   26.1141393507181370
 Ni  O  
  36   3
Selective dynamics
Cartesian
  0.0000000000000000  0.0000000000000000 10.0000000000000000   F   F   F
  2.4960869375885126  0.0000000000000000 10.0000000000000000   F   F   F
  4.9921738751770253  0.0000000000000000 10.0000000000000000   F   F   F
  1.2480434687942563  2.1616746980061543 10.0000000000000000   F   F   F
  3.7441304063827689  2.1616746980061543 10.0000000000000000   F   F   F
  6.2402173439712811  2.1616746980061543 10.0000000000000000   F   F   F
  2.4960869375885126  4.3233493960123086 10.0000000000000000   F   F   F
  4.9921738751770253  4.3233493960123086 10.0000000000000000   F   F   F
  7.4882608127655379  4.3233493960123086 10.0000000000000000   F   F   F
  1.2480434687942563  0.7205582326687181 12.0380464502393796   F   F   F
  3.7441304063827685  0.7205582326687181 12.0380464502393796   F   F   F
  6.2402173439712820  0.7205582326687181 12.0380464502393796   F   F   F
  2.4960869375885126  2.8822329306748724 12.0380464502393796   F   F   F
  4.9921738751770253  2.8822329306748724 12.0380464502393796   F   F   F
  7.4882608127655388  2.8822329306748724 12.0380464502393796   F   F   F
  3.7441304063827689  5.0439076286810272 12.0380464502393796   F   F   F
  6.2402173439712811  5.0439076286810272 12.0380464502393796   F   F   F
  8.7363042815597947  5.0439076286810272 12.0380464502393796   F   F   F
 -0.0106692720971078  1.4409435203371022 14.0713258663614909   T   T   T
  2.4970809596608685  1.4416731242997642 14.0713288619075474   T   T   T
  4.9870035446640770  1.4321881873232767 14.0714851908635161   T   T   T
  1.2425927724576085  3.5933968717142073 14.0716631580350100   T   T   T
  3.7338946438587821  3.6028307044833192 14.0714085760182499   T   T   T
  6.2418113761906939  3.6037567644360307 14.0712095626803215   T   T   T
  2.4966296165303472  5.7648503845323180 14.0706514954188897   T   T   T
  4.9866645318556033  5.7554274738310998 14.0713375413028245   T   T   T
  7.4773319137923044  5.7645482198777698 14.0716814047498602   T   T   T
 -0.0118390160869121 -0.0068575143095381 16.1353270500292965   T   T   T
  2.4877165350087842 -0.0063938748464578 16.1354450364657609   T   T   T
  4.9825994298888787 -0.0036486826848645 16.1353575009006711   T   T   T
  1.2384169222506272  2.1574539016594874 16.1354285284933248   T   T   T
  3.7330763185657170  2.1552250544294833 16.1359956401389155   T   T   T
  6.2323254668421217  2.1551755321616661 16.1353452734395511   T   T   T
  2.4882869977415263  4.3167904970531046 16.1352628484257181   T   T   T
  4.9826431806360052  4.3196449198909663 16.1353660296098198   T   T   T
  7.4781023876230979  4.3174235273834087 16.1373639427790927   T   T   T
  4.9821144159678195  2.8764212860395277 17.2848629665624109   T   T   T
  1.2374538608586134  0.7143679162588307 17.2848960624399162   T   T   T
  8.7282919615160086  5.0391332117231373 17.2851722019223892   T   T   T
