Ni  O 
 1.0000000000000000
     7.4882608127655379    0.0000000000000000    0.0000000000000000
     3.7441304063827689    6.4850240940184634    0.0000000000000000
     0.0000000000000000    0.0000000000000000   26.1141393507181370
 Ni  O  
  36   4
Selective dynamics
Cartesian
  0.0000000000000000  0.0000000000000000 10.0000000000000000   F   F   F
  2.4960869375885126  0.0000000000000000 10.0000000000000000   F   F   F
  4.9921738751770253  0.0000000000000000 10.0000000000000000   F   F   F
  1.2480434687942563  2.1616746980061543 10.0000000000000000   F   F   F
  3.7441304063827689  2.1616746980061543 10.0000000000000000   F   F   F
  6.2402173439712811  2.1616746980061543 10.0000000000000000   F   F   F
  2.4960869375885126  4.3233493960123086 10.0000000000000000   F   F   F
  4.9921738751770253  4.3233493960123086 10.0000000000000000   F   F   F
  7.4882608127655379  4.3233493960123086 10.0000000000000000   F   F   F
  1.2480434687942563  0.7205582326687181 12.0380464502393796   F   F   F
  3.7441304063827685  0.7205582326687181 12.0380464502393796   F   F   F
  6.2402173439712820  0.7205582326687181 12.0380464502393796   F   F   F
  2.4960869375885126  2.8822329306748724 12.0380464502393796   F   F   F
  4.9921738751770253  2.8822329306748724 12.0380464502393796   F   F   F
  7.4882608127655388  2.8822329306748724 12.0380464502393796   F   F   F
  3.7441304063827689  5.0439076286810272 12.0380464502393796   F   F   F
  6.2402173439712811  5.0439076286810272 12.0380464502393796   F   F   F
  8.7363042815597947  5.0439076286810272 12.0380464502393796   F   F   F
 -0.0005412063974253  1.4279254320358441 14.0706053397998296   T   T   T
  2.5029093766041837  1.4411975082106936 14.0509199023181992   T   T   T
  4.9888022170134727  1.4299002372784169 14.0500930970577009   T   T   T
  1.2542704048389686  3.6063333592009723 14.0715682472560140   T   T   T
  3.7322189964489985  3.6081397635581332 14.0987627157880642   T   T   T
  6.2295231601713015  3.6036865040009931 14.0706973858707993   T   T   T
  2.5067026116422229  5.7665576339990494 14.0985821372802693   T   T   T
  4.9892594252571030  5.7486041706048283 14.0996333840713071   T   T   T
  7.4800501608529828  5.7678131027656718 14.0514713293524665   T   T   T
 -0.0017591947942750  0.0463984845819597 16.3030243700203101   T   T   T
  2.5255769778199646 -0.0064249505758499 16.1214134610833355   T   T   T
  4.9719200358542954  0.0241195246040478 16.1200873400102829   T   T   T
  1.2556771183611675  2.2037804031329098 16.0654980668900329   T   T   T
  3.7225728206510991  2.1274673606517087 16.1200661522931448   T   T   T
  6.2720946671206184  2.1225936693424932 16.0660688156942655   T   T   T
  2.4456368459894975  4.2939395729873153 16.3040387589429159   T   T   T
  5.0316174723049691  4.2895854637657154 16.3016151333694950   T   T   T
  7.4372064438945529  4.3035707544969100 16.0682810966861638   T   T   T
  5.0417345063027721  2.6786387830806984 17.2568658463635209   T   T   T
  1.3886792959468279  0.8619476310213539 17.2579241924066160   T   T   T
  8.5335991572219516  5.0916282648164248 17.2587270350082775   T   T   T
  3.7408528020247518  5.0384342518267546 17.3512871701586207   T   T   T
