Ni O  C                                 
   1.00000000000000     
    10.5899999999999999    0.0000000000000000    0.0000000000000000
     0.0000000000000000    7.4882608127655379    0.0000000000000000
     0.0000000000000000    0.0000000000000000   23.7441304063827694
  Ni/0534bc51ca8  O/818f92134a0a  C/253f7b50bb8d
              36               7               7
Selective dynamics
Direct
  0.1666666666666643  0.1666666666666643  0.4211567165800219   F   F   F
  0.5000000000000000  0.1666666666666643  0.4211567165800219   F   F   F
  0.8333333333333357  0.1666666666666643  0.4211567165800219   F   F   F
  0.1666666666666643  0.5000000000000000  0.4211567165800219   F   F   F
  0.5000000000000000  0.5000000000000000  0.4211567165800219   F   F   F
  0.8333333333333357  0.5000000000000000  0.4211567165800219   F   F   F
  0.1666666666666643  0.8333333333333357  0.4211567165800219   F   F   F
  0.5000000000000000  0.8333333333333357  0.4211567165800219   F   F   F
  0.8333333333333357  0.8333333333333357  0.4211567165800219   F   F   F
  0.0000000000000000  0.0000000000000000  0.4737189055266740   F   F   F
  0.3333333333333357  0.0000000000000000  0.4737189055266740   F   F   F
  0.6666666666666643  0.0000000000000000  0.4737189055266740   F   F   F
  0.0000000000000000  0.3333333333333357  0.4737189055266740   F   F   F
  0.3333333333333357  0.3333333333333357  0.4737189055266740   F   F   F
  0.6666666666666643  0.3333333333333357  0.4737189055266740   F   F   F
  0.0000000000000000  0.6666666666666643  0.4737189055266740   F   F   F
  0.3333333333333357  0.6666666666666643  0.4737189055266740   F   F   F
  0.6666666666666643  0.6666666666666643  0.4737189055266740   F   F   F
  0.1669993578640145  0.1676045392035022  0.5242064217396489   T   T   T
  0.5001048785557956  0.1656578925066015  0.5237630305109064   T   T   T
  0.8336035738772836  0.1675544182546602  0.5237132832156206   T   T   T
  0.1655452494478737  0.4984786121774434  0.5253005630225900   T   T   T
  0.5017738011191923  0.5002789447469667  0.5252441200423377   T   T   T
  0.8332651489970431  0.5003650879592740  0.5262108793166718   T   T   T
  0.1658744177310396  0.8326536917015872  0.5237819922110631   T   T   T
  0.5002675754156130  0.8337015712292484  0.5240530047841787   T   T   T
  0.8331462985148548  0.8338457910804991  0.5236534910435964   T   T   T
  0.9972265649072583  0.0008411667692769  0.5851773097329342   T   T   T
  0.3291043027564839  0.9965354140089246  0.5826698197818203   T   T   T
  0.6675321443793791  0.0032320286927217  0.5854224838777142   T   T   T
  0.0007752048210321  0.3291681333000156  0.5777096449457488   T   T   T
  0.3407871109316787  0.3301501224545902  0.5841178352329024   T   T   T
  0.6684536650342707  0.3300564582227281  0.5771509150183221   T   T   T
  0.9978370095336544  0.6716255537797622  0.5774968604328095   T   T   T
  0.3314438924160967  0.6636137433266711  0.5810427392851452   T   T   T
  0.6673912472563828  0.6748415820642109  0.5776923903426834   T   T   T
  0.4386834617359554  0.5189573008598600  0.6821861461333967   T   T   T
  0.7126736799595221  0.2083267974914875  0.6894521627165702   T   T   T
  0.9384237434960028  0.7990494667510930  0.6879108739596518   T   T   T
  0.0452701113069907  0.2010203081445781  0.6894076962452687   T   T   T
  0.6327475662280548  0.8039525651701851  0.6903156419340206   T   T   T
  0.2342196370461593  0.8185844893696199  0.6831485013298320   T   T   T
  0.3900080523913516  0.1469985859971104  0.6904360065124990   T   T   T
  0.3932215838728439  0.5074398196351879  0.6373110658919074   T   T   T
  0.6909339659085774  0.1890570761800419  0.6414218941406560   T   T   T
  0.9660483186208850  0.8166096610977789  0.6404152477302247   T   T   T
  0.0228858243821719  0.1838741607790126  0.6413232562022131   T   T   T
  0.6488974763101467  0.8207689351797143  0.6418055119383084   T   T   T
  0.2760420046833403  0.8242973679247925  0.6374483072775661   T   T   T
  0.3637484199244057  0.1561175209405263  0.6426159776401619   T   T   T
 
             NaN             NaN             NaN
             NaN             NaN             NaN
             NaN             NaN             NaN
             NaN             NaN             NaN
             NaN             NaN             NaN
             NaN             NaN             NaN
             NaN             NaN             NaN
             NaN             NaN             NaN
             NaN             NaN             NaN
             NaN             NaN             NaN
             NaN             NaN             NaN
             NaN             NaN             NaN
             NaN             NaN             NaN
             NaN             NaN             NaN
             NaN             NaN             NaN
             NaN             NaN             NaN
             NaN             NaN             NaN
             NaN             NaN             NaN
             NaN             NaN             NaN
             NaN             NaN             NaN
             NaN             NaN             NaN
             NaN             NaN             NaN
             NaN             NaN             NaN
             NaN             NaN             NaN
             NaN             NaN             NaN
             NaN             NaN             NaN
             NaN             NaN             NaN
             NaN             NaN             NaN
             NaN             NaN             NaN
             NaN             NaN             NaN
             NaN             NaN             NaN
             NaN             NaN             NaN
             NaN             NaN             NaN
             NaN             NaN             NaN
             NaN             NaN             NaN
             NaN             NaN             NaN
             NaN             NaN             NaN
             NaN             NaN             NaN
             NaN             NaN             NaN
             NaN             NaN             NaN
             NaN             NaN             NaN
             NaN             NaN             NaN
             NaN             NaN             NaN
             NaN             NaN             NaN
             NaN             NaN             NaN
             NaN             NaN             NaN
             NaN             NaN             NaN
             NaN             NaN             NaN
             NaN             NaN             NaN
             NaN             NaN             NaN
