Ni  O                                   
   1.00000000000000     
    10.5899999999999999    0.0000000000000000    0.0000000000000000
     0.0000000000000000    7.4882608127655379    0.0000000000000000
     0.0000000000000000    0.0000000000000000   23.7441304063827694
  Ni/0534bc51ca8  O/818f92134a0a
              36               8
Selective dynamics
Direct
  0.1666666666666643  0.1666666666666643  0.4211567165800219   F   F   F
  0.5000000000000000  0.1666666666666643  0.4211567165800219   F   F   F
  0.8333333333333357  0.1666666666666643  0.4211567165800219   F   F   F
  0.1666666666666643  0.5000000000000000  0.4211567165800219   F   F   F
  0.5000000000000000  0.5000000000000000  0.4211567165800219   F   F   F
  0.8333333333333357  0.5000000000000000  0.4211567165800219   F   F   F
  0.1666666666666643  0.8333333333333357  0.4211567165800219   F   F   F
  0.5000000000000000  0.8333333333333357  0.4211567165800219   F   F   F
  0.8333333333333357  0.8333333333333357  0.4211567165800219   F   F   F
  0.0000000000000000  0.0000000000000000  0.4737189055266740   F   F   F
  0.3333333333333357  0.0000000000000000  0.4737189055266740   F   F   F
  0.6666666666666643  0.0000000000000000  0.4737189055266740   F   F   F
  0.0000000000000000  0.3333333333333357  0.4737189055266740   F   F   F
  0.3333333333333357  0.3333333333333357  0.4737189055266740   F   F   F
  0.6666666666666643  0.3333333333333357  0.4737189055266740   F   F   F
  0.0000000000000000  0.6666666666666643  0.4737189055266740   F   F   F
  0.3333333333333357  0.6666666666666643  0.4737189055266740   F   F   F
  0.6666666666666643  0.6666666666666643  0.4737189055266740   F   F   F
  0.1690760755306613  0.1630342083979670  0.5207688385476033   T   T   T
  0.4989903640561337  0.1685106846718014  0.5213679719226718   T   T   T
  0.8340782906328741  0.1655467156926349  0.5222966951867534   T   T   T
  0.1698138419675246  0.4957783435321304  0.5283460705553225   T   T   T
  0.5050866815645136  0.5023230306254476  0.5235858444863766   T   T   T
  0.8292120560581537  0.4960287848887788  0.5236926378602220   T   T   T
  0.1618503241263483  0.8297489365603852  0.5265819803546492   T   T   T
  0.4996202837385013  0.8405301484587682  0.5261337220458273   T   T   T
  0.8303146096108520  0.8374700566719326  0.5229211498487771   T   T   T
  0.9880324931268163  0.9856694415461504  0.5792728980741941   T   T   T
  0.3151584070069120  0.0191332966771114  0.5856319994813859   T   T   T
  0.6602743165633882  0.0468941796077615  0.5857115736498457   T   T   T
  0.0361682735452362  0.2984179040910391  0.5902781502926899   T   T   T
  0.3686848677371088  0.3289396474239439  0.5899185578293995   T   T   T
  0.8086273356500016  0.2847405285197624  0.6214485123433775   T   T   T
  0.9803830691321309  0.6570309975120665  0.5815557247912722   T   T   T
  0.3393988281473099  0.6691150858957471  0.5845771351715499   T   T   T
  0.6811238246735698  0.6845234915223131  0.5865790364978665   T   T   T
  0.4721699650472573  0.5194915970885035  0.6002445406219294   T   T   T
  0.6572422080407634  0.2070557932599257  0.6396062704959107   T   T   T
  0.2158665592386697  0.8281147565829343  0.6016991011983635   T   T   T
  0.9546510194185558  0.1438816303702382  0.6361382808522436   T   T   T
  0.5629617748265048  0.8538679050800297  0.5997784437112230   T   T   T
  0.3201839050507616  0.1756079594525488  0.6402215567136054   T   T   T
  0.8170227360618014  0.5401043044499758  0.6045846664972387   T   T   T
  0.1126292064341499  0.5074261168857603  0.6031908123132865   T   T   T
 
             NaN             NaN             NaN
             NaN             NaN             NaN
             NaN             NaN             NaN
             NaN             NaN             NaN
             NaN             NaN             NaN
             NaN             NaN             NaN
             NaN             NaN             NaN
             NaN             NaN             NaN
             NaN             NaN             NaN
             NaN             NaN             NaN
             NaN             NaN             NaN
             NaN             NaN             NaN
             NaN             NaN             NaN
             NaN             NaN             NaN
             NaN             NaN             NaN
             NaN             NaN             NaN
             NaN             NaN             NaN
             NaN             NaN             NaN
             NaN             NaN             NaN
             NaN             NaN             NaN
             NaN             NaN             NaN
             NaN             NaN             NaN
             NaN             NaN             NaN
             NaN             NaN             NaN
             NaN             NaN             NaN
             NaN             NaN             NaN
             NaN             NaN             NaN
             NaN             NaN             NaN
             NaN             NaN             NaN
             NaN             NaN             NaN
             NaN             NaN             NaN
             NaN             NaN             NaN
             NaN             NaN             NaN
             NaN             NaN             NaN
             NaN             NaN             NaN
             NaN             NaN             NaN
             NaN             NaN             NaN
             NaN             NaN             NaN
             NaN             NaN             NaN
             NaN             NaN             NaN
             NaN             NaN             NaN
             NaN             NaN             NaN
             NaN             NaN             NaN
             NaN             NaN             NaN
